 
data_ah0001 
  
_audit_creation_method            SHELXL-97 
_chemical_name_systematic 
; 
 ? 
; 
_chemical_name_common             ? 
_chemical_melting_point           ? 
_chemical_formula_moiety          ? 
_chemical_formula_sum 
 'C14 H12 O2 S' 
_chemical_formula_weight          244.30 
  
loop_ 
 _atom_type_symbol 
 _atom_type_description 
 _atom_type_scat_dispersion_real 
 _atom_type_scat_dispersion_imag 
 _atom_type_scat_source 
 'C'  'C'   0.0033   0.0016 
 'International Tables Vol C Tables 4.2.6.8 and 6.1.1.4' 
 'H'  'H'   0.0000   0.0000 
 'International Tables Vol C Tables 4.2.6.8 and 6.1.1.4' 
 'S'  'S'   0.1246   0.1234 
 'International Tables Vol C Tables 4.2.6.8 and 6.1.1.4' 
 'O'  'O'   0.0106   0.0060 
 'International Tables Vol C Tables 4.2.6.8 and 6.1.1.4' 
  
_symmetry_cell_setting            Monoclinic 
_symmetry_space_group_name_H-M    P2(1)/c 
  
loop_ 
 _symmetry_equiv_pos_as_xyz 
 'x, y, z' 
 '-x, y+1/2, -z+1/2' 
 '-x, -y, -z' 
 'x, -y-1/2, z-1/2' 
  
_cell_length_a                    10.2187(4) 
_cell_length_b                    13.6097(8) 
_cell_length_c                    8.4912(4) 
_cell_angle_alpha                 90.00 
_cell_angle_beta                  102.261(3) 
_cell_angle_gamma                 90.00 
_cell_volume                      1153.96(10) 
_cell_formula_units_Z             4 
_cell_measurement_temperature     180(2) 
_cell_measurement_reflns_used     3384 
_cell_measurement_theta_min       1.00 
_cell_measurement_theta_max       27.48 
  
_exptl_crystal_description        block 
_exptl_crystal_colour             colourless 
_exptl_crystal_size_max           0.16 
_exptl_crystal_size_mid           0.16 
_exptl_crystal_size_min           0.16 
_exptl_crystal_density_meas       ? 
_exptl_crystal_density_diffrn     1.406 
_exptl_crystal_density_method     'not measured' 
_exptl_crystal_F_000              512 
_exptl_absorpt_coefficient_mu     0.265 
_exptl_absorpt_correction_type    none 
_exptl_absorpt_correction_T_min   ? 
_exptl_absorpt_correction_T_max   ? 
_exptl_absorpt_process_details    ? 
  
_exptl_special_details 
; 
 ? 
; 
  
_diffrn_ambient_temperature       180(2) 
_diffrn_radiation_wavelength      0.71069 
_diffrn_radiation_type            MoK\a 
_diffrn_radiation_source          'fine-focus sealed tube' 
_diffrn_radiation_monochromator   graphite 
_diffrn_measurement_device_type   'Nonius KappaCCD' 
_diffrn_measurement_method        CCD 
_diffrn_detector_area_resol_mean  ? 
_diffrn_standards_number          ? 
_diffrn_standards_interval_count  ? 
_diffrn_standards_interval_time   ? 
_diffrn_standards_decay_%         ? 
_diffrn_reflns_number             6910 
_diffrn_reflns_av_R_equivalents   0.0365 
_diffrn_reflns_av_sigmaI/netI     0.0491 
_diffrn_reflns_limit_h_min        0 
_diffrn_reflns_limit_h_max        13 
_diffrn_reflns_limit_k_min        -17 
_diffrn_reflns_limit_k_max        17 
_diffrn_reflns_limit_l_min        -11 
_diffrn_reflns_limit_l_max        10 
_diffrn_reflns_theta_min          3.62 
_diffrn_reflns_theta_max          27.46 
_reflns_number_total              2618 
_reflns_number_gt                 2075 
_reflns_threshold_expression      >2sigma(I) 
  
_computing_data_collection         
; 
"Collect" data collection software, Nonius B.V., 1998. 
; 
_computing_cell_refinement        'HKL Scalepack (Otwinowski & Minor 1997)' 
_computing_data_reduction          
; 
"Collect" data collection software, Nonius B.V., 1998. 
; 
_computing_structure_solution     'SHELXS-97 (Sheldrick, 1990)' 
_computing_structure_refinement   'SHELXL-97 (Sheldrick, 1997)' 
_computing_molecular_graphics     ? 
_computing_publication_material   ? 
  
_refine_special_details 
; 
 Refinement of F^2^ against ALL reflections.  The weighted R-factor wR and 
 goodness of fit S are based on F^2^, conventional R-factors R are based 
 on F, with F set to zero for negative F^2^. The threshold expression of 
 F^2^ > 2sigma(F^2^) is used only for calculating R-factors(gt) etc. and is 
 not relevant to the choice of reflections for refinement.  R-factors based 
 on F^2^ are statistically about twice as large as those based on F, and R- 
 factors based on ALL data will be even larger. 
; 
  
_refine_ls_structure_factor_coef  Fsqd 
_refine_ls_matrix_type            full 
_refine_ls_weighting_scheme       calc 
_refine_ls_weighting_details 
 'calc w=1/[\s^2^(Fo^2^)+(0.0402P)^2^+0.4550P] where P=(Fo^2^+2Fc^2^)/3' 
_atom_sites_solution_primary      direct 
_atom_sites_solution_secondary    difmap 
_atom_sites_solution_hydrogens    geom 
_refine_ls_hydrogen_treatment     mixed 
_refine_ls_extinction_method      none 
_refine_ls_extinction_coef        ? 
_refine_ls_number_reflns          2618 
_refine_ls_number_parameters      154 
_refine_ls_number_restraints      0 
_refine_ls_R_factor_all           0.0540 
_refine_ls_R_factor_gt            0.0397 
_refine_ls_wR_factor_ref          0.1042 
_refine_ls_wR_factor_gt           0.0967 
_refine_ls_goodness_of_fit_ref    1.047 
_refine_ls_restrained_S_all       1.047 
_refine_ls_shift/su_max           0.002 
_refine_ls_shift/su_mean          0.000 
  
loop_ 
 _atom_site_label 
 _atom_site_type_symbol 
 _atom_site_fract_x 
 _atom_site_fract_y 
 _atom_site_fract_z 
 _atom_site_U_iso_or_equiv 
 _atom_site_adp_type 
 _atom_site_occupancy 
 _atom_site_symmetry_multiplicity 
 _atom_site_calc_flag 
 _atom_site_refinement_flags 
 _atom_site_disorder_assembly 
 _atom_site_disorder_group 
S1 S 0.22611(4) 0.00465(3) -0.38504(5) 0.02722(15) Uani 1 1 d . . . 
O1 O 0.13462(13) 0.08488(10) -0.38072(17) 0.0407(3) Uani 1 1 d . . . 
O2 O 0.27583(14) -0.00876(11) -0.52962(15) 0.0435(4) Uani 1 1 d . . . 
C1 C 0.63768(17) -0.17429(15) -0.1519(2) 0.0341(5) Uani 1 1 d . . . 
H1 H 0.7220 -0.1852 -0.1792 0.041 Uiso 1 1 calc R . . 
C2 C 0.58836(18) -0.24203(14) -0.0584(2) 0.0325(4) Uani 1 1 d . . . 
H2 H 0.6398 -0.2983 -0.0182 0.039 Uiso 1 1 calc R . . 
C3 C 0.46312(16) -0.22760(13) -0.0233(2) 0.0266(4) Uani 1 1 d . . . 
H3 H 0.4290 -0.2748 0.0400 0.032 Uiso 1 1 calc R . . 
C4 C 0.38649(15) -0.14492(12) -0.07962(18) 0.0216(3) Uani 1 1 d . . . 
C5 C 0.43996(16) -0.07446(12) -0.16934(18) 0.0235(4) Uani 1 1 d . . . 
C6 C 0.56496(16) -0.09047(15) -0.2062(2) 0.0301(4) Uani 1 1 d . . . 
H6 H 0.6004 -0.0436 -0.2688 0.036 Uiso 1 1 calc R . . 
C7 C -0.00560(17) -0.12403(14) 0.0220(2) 0.0321(4) Uani 1 1 d . . . 
H7 H -0.0927 -0.1219 0.0445 0.039 Uiso 1 1 calc R . . 
C8 C 0.01063(17) -0.11298(13) -0.1347(2) 0.0281(4) Uani 1 1 d . . . 
H8 H -0.0655 -0.1023 -0.2191 0.034 Uiso 1 1 calc R . . 
C9 C 0.13759(16) -0.11733(12) -0.17009(19) 0.0223(4) Uani 1 1 d . . . 
C10 C 0.25037(15) -0.13361(12) -0.04519(19) 0.0217(4) Uani 1 1 d . . . 
C11 C 0.23148(16) -0.14310(13) 0.1122(2) 0.0255(4) Uani 1 1 d . . . 
H11 H 0.3069 -0.1531 0.1977 0.031 Uiso 1 1 calc R . . 
C12 C 0.10497(18) -0.13818(13) 0.1461(2) 0.0297(4) Uani 1 1 d . . . 
H12 H 0.0941 -0.1445 0.2540 0.036 Uiso 1 1 calc R . . 
C13 C 0.15205(16) -0.10816(12) -0.34245(19) 0.0242(4) Uani 1 1 d . . . 
H13A H 0.0624 -0.1141 -0.4143 0.029 Uiso 1 1 calc R . . 
H13B H 0.2076 -0.1633 -0.3673 0.029 Uiso 1 1 calc R . . 
C14 C 0.36499(17) 0.01935(13) -0.2182(2) 0.0267(4) Uani 1 1 d . . . 
H14A H 0.4275 0.0684 -0.2471 0.032 Uiso 1 1 calc R . . 
H14B H 0.3319 0.0454 -0.1250 0.032 Uiso 1 1 calc R . . 
  
loop_ 
 _atom_site_aniso_label 
 _atom_site_aniso_U_11 
 _atom_site_aniso_U_22 
 _atom_site_aniso_U_33 
 _atom_site_aniso_U_23 
 _atom_site_aniso_U_13 
 _atom_site_aniso_U_12 
S1 0.0295(3) 0.0302(3) 0.0194(2) 0.00465(16) -0.00063(17) -0.00555(18) 
O1 0.0395(8) 0.0302(7) 0.0457(8) 0.0092(6) -0.0060(6) 0.0039(6) 
O2 0.0474(8) 0.0624(10) 0.0210(7) 0.0009(6) 0.0080(6) -0.0210(7) 
C1 0.0191(8) 0.0541(13) 0.0285(10) -0.0142(9) 0.0034(7) -0.0001(8) 
C2 0.0270(9) 0.0379(10) 0.0285(9) -0.0087(8) -0.0035(7) 0.0081(8) 
C3 0.0270(9) 0.0269(9) 0.0241(8) -0.0009(7) 0.0012(7) 0.0007(7) 
C4 0.0217(8) 0.0239(8) 0.0177(8) -0.0023(6) 0.0010(6) -0.0015(7) 
C5 0.0228(8) 0.0297(9) 0.0161(8) -0.0029(6) -0.0001(6) -0.0055(7) 
C6 0.0246(9) 0.0441(11) 0.0213(8) -0.0062(8) 0.0043(7) -0.0115(8) 
C7 0.0261(9) 0.0337(10) 0.0397(11) -0.0036(8) 0.0136(8) -0.0023(8) 
C8 0.0231(8) 0.0296(9) 0.0310(9) -0.0009(7) 0.0045(7) -0.0003(7) 
C9 0.0243(8) 0.0197(8) 0.0226(8) -0.0006(6) 0.0044(6) -0.0023(6) 
C10 0.0238(8) 0.0183(8) 0.0228(8) 0.0005(6) 0.0048(7) -0.0013(6) 
C11 0.0293(9) 0.0244(9) 0.0220(8) 0.0018(7) 0.0035(7) -0.0018(7) 
C12 0.0362(10) 0.0299(9) 0.0263(9) -0.0005(7) 0.0140(7) -0.0035(8) 
C13 0.0220(8) 0.0264(9) 0.0224(8) -0.0013(7) 0.0007(6) -0.0035(7) 
C14 0.0297(9) 0.0270(9) 0.0208(8) 0.0016(7) -0.0001(7) -0.0087(7) 
  
_geom_special_details 
; 
 All esds (except the esd in the dihedral angle between two l.s. planes) 
 are estimated using the full covariance matrix.  The cell esds are taken 
 into account individually in the estimation of esds in distances, angles 
 and torsion angles; correlations between esds in cell parameters are only 
 used when they are defined by crystal symmetry.  An approximate (isotropic) 
 treatment of cell esds is used for estimating esds involving l.s. planes. 
; 
  
loop_ 
 _geom_bond_atom_site_label_1 
 _geom_bond_atom_site_label_2 
 _geom_bond_distance 
 _geom_bond_site_symmetry_2 
 _geom_bond_publ_flag 
S1 O2 1.4365(14) . ? 
S1 O1 1.4430(14) . ? 
S1 C13 1.7824(17) . ? 
S1 C14 1.7907(17) . ? 
C1 C2 1.380(3) . ? 
C1 C6 1.386(3) . ? 
C1 H1 0.9500 . ? 
C2 C3 1.388(2) . ? 
C2 H2 0.9500 . ? 
C3 C4 1.396(2) . ? 
C3 H3 0.9500 . ? 
C4 C5 1.405(2) . ? 
C4 C10 1.489(2) . ? 
C5 C6 1.395(2) . ? 
C5 C14 1.501(2) . ? 
C6 H6 0.9500 . ? 
C7 C8 1.384(2) . ? 
C7 C12 1.385(3) . ? 
C7 H7 0.9500 . ? 
C8 C9 1.394(2) . ? 
C8 H8 0.9500 . ? 
C9 C10 1.408(2) . ? 
C9 C13 1.507(2) . ? 
C10 C11 1.396(2) . ? 
C11 C12 1.385(2) . ? 
C11 H11 0.9500 . ? 
C12 H12 0.9500 . ? 
C13 H13A 0.9900 . ? 
C13 H13B 0.9900 . ? 
C14 H14A 0.9900 . ? 
C14 H14B 0.9900 . ? 
  
loop_ 
 _geom_angle_atom_site_label_1 
 _geom_angle_atom_site_label_2 
 _geom_angle_atom_site_label_3 
 _geom_angle 
 _geom_angle_site_symmetry_1 
 _geom_angle_site_symmetry_3 
 _geom_angle_publ_flag 
O2 S1 O1 117.80(9) . . ? 
O2 S1 C13 107.85(8) . . ? 
O1 S1 C13 109.96(8) . . ? 
O2 S1 C14 108.99(9) . . ? 
O1 S1 C14 107.72(8) . . ? 
C13 S1 C14 103.60(8) . . ? 
C2 C1 C6 120.38(16) . . ? 
C2 C1 H1 119.8 . . ? 
C6 C1 H1 119.8 . . ? 
C1 C2 C3 119.67(17) . . ? 
C1 C2 H2 120.2 . . ? 
C3 C2 H2 120.2 . . ? 
C2 C3 C4 121.08(16) . . ? 
C2 C3 H3 119.5 . . ? 
C4 C3 H3 119.5 . . ? 
C3 C4 C5 118.76(15) . . ? 
C3 C4 C10 119.71(14) . . ? 
C5 C4 C10 121.52(14) . . ? 
C6 C5 C4 119.66(16) . . ? 
C6 C5 C14 120.56(15) . . ? 
C4 C5 C14 119.73(15) . . ? 
C1 C6 C5 120.38(17) . . ? 
C1 C6 H6 119.8 . . ? 
C5 C6 H6 119.8 . . ? 
C8 C7 C12 120.12(16) . . ? 
C8 C7 H7 119.9 . . ? 
C12 C7 H7 119.9 . . ? 
C7 C8 C9 120.64(16) . . ? 
C7 C8 H8 119.7 . . ? 
C9 C8 H8 119.7 . . ? 
C8 C9 C10 119.67(15) . . ? 
C8 C9 C13 119.56(15) . . ? 
C10 C9 C13 120.73(14) . . ? 
C11 C10 C9 118.55(14) . . ? 
C11 C10 C4 120.21(14) . . ? 
C9 C10 C4 121.18(14) . . ? 
C12 C11 C10 121.32(15) . . ? 
C12 C11 H11 119.3 . . ? 
C10 C11 H11 119.3 . . ? 
C11 C12 C7 119.68(16) . . ? 
C11 C12 H12 120.2 . . ? 
C7 C12 H12 120.2 . . ? 
C9 C13 S1 113.69(11) . . ? 
C9 C13 H13A 108.8 . . ? 
S1 C13 H13A 108.8 . . ? 
C9 C13 H13B 108.8 . . ? 
S1 C13 H13B 108.8 . . ? 
H13A C13 H13B 107.7 . . ? 
C5 C14 S1 113.32(11) . . ? 
C5 C14 H14A 108.9 . . ? 
S1 C14 H14A 108.9 . . ? 
C5 C14 H14B 108.9 . . ? 
S1 C14 H14B 108.9 . . ? 
H14A C14 H14B 107.7 . . ? 
  
loop_ 
 _geom_torsion_atom_site_label_1 
 _geom_torsion_atom_site_label_2 
 _geom_torsion_atom_site_label_3 
 _geom_torsion_atom_site_label_4 
 _geom_torsion 
 _geom_torsion_site_symmetry_1 
 _geom_torsion_site_symmetry_2 
 _geom_torsion_site_symmetry_3 
 _geom_torsion_site_symmetry_4 
 _geom_torsion_publ_flag 
C6 C1 C2 C3 2.2(3) . . . . ? 
C1 C2 C3 C4 -0.7(3) . . . . ? 
C2 C3 C4 C5 -1.8(2) . . . . ? 
C2 C3 C4 C10 177.63(15) . . . . ? 
C3 C4 C5 C6 2.8(2) . . . . ? 
C10 C4 C5 C6 -176.58(14) . . . . ? 
C3 C4 C5 C14 -174.44(14) . . . . ? 
C10 C4 C5 C14 6.2(2) . . . . ? 
C2 C1 C6 C5 -1.2(3) . . . . ? 
C4 C5 C6 C1 -1.4(2) . . . . ? 
C14 C5 C6 C1 175.84(15) . . . . ? 
C12 C7 C8 C9 0.9(3) . . . . ? 
C7 C8 C9 C10 0.3(2) . . . . ? 
C7 C8 C9 C13 178.14(16) . . . . ? 
C8 C9 C10 C11 -1.2(2) . . . . ? 
C13 C9 C10 C11 -179.02(15) . . . . ? 
C8 C9 C10 C4 176.15(15) . . . . ? 
C13 C9 C10 C4 -1.6(2) . . . . ? 
C3 C4 C10 C11 51.2(2) . . . . ? 
C5 C4 C10 C11 -129.39(17) . . . . ? 
C3 C4 C10 C9 -126.11(17) . . . . ? 
C5 C4 C10 C9 53.3(2) . . . . ? 
C9 C10 C11 C12 0.9(2) . . . . ? 
C4 C10 C11 C12 -176.47(16) . . . . ? 
C10 C11 C12 C7 0.3(3) . . . . ? 
C8 C7 C12 C11 -1.2(3) . . . . ? 
C8 C9 C13 S1 109.33(15) . . . . ? 
C10 C9 C13 S1 -72.87(18) . . . . ? 
O2 S1 C13 C9 160.51(12) . . . . ? 
O1 S1 C13 C9 -69.83(14) . . . . ? 
C14 S1 C13 C9 45.07(14) . . . . ? 
C6 C5 C14 S1 105.66(15) . . . . ? 
C4 C5 C14 S1 -77.11(17) . . . . ? 
O2 S1 C14 C5 -73.08(14) . . . . ? 
O1 S1 C14 C5 158.04(12) . . . . ? 
C13 S1 C14 C5 41.55(14) . . . . ? 
  
_diffrn_measured_fraction_theta_max    0.993 
_diffrn_reflns_theta_full              27.46 
_diffrn_measured_fraction_theta_full   0.993 
_refine_diff_density_max    0.223 
_refine_diff_density_min   -0.462 
_refine_diff_density_rms    0.053 
