 
data_ak0001 
 
_audit_creation_method            SHELXL 
_chemical_name_systematic 
; 
 ? 
; 
_chemical_name_common             ? 
_chemical_formula_moiety          ? 
_chemical_formula_structural      ? 
_chemical_formula_analytical      ? 
_chemical_formula_sum             'C14 H17 B F4 N2 O' 
_chemical_formula_weight          316.11 
_chemical_melting_point           ? 
_chemical_compound_source         ? 
 
loop_ 
 _atom_type_symbol 
 _atom_type_description 
 _atom_type_scat_dispersion_real 
 _atom_type_scat_dispersion_imag 
 _atom_type_scat_source 
 'C'  'C'   0.0033   0.0016 
 'International Tables Vol C Tables 4.2.6.8 and 6.1.1.4' 
 'H'  'H'   0.0000   0.0000 
 'International Tables Vol C Tables 4.2.6.8 and 6.1.1.4' 
 'B'  'B'   0.0013   0.0007 
 'International Tables Vol C Tables 4.2.6.8 and 6.1.1.4' 
 'F'  'F'   0.0171   0.0103 
 'International Tables Vol C Tables 4.2.6.8 and 6.1.1.4' 
 'N'  'N'   0.0061   0.0033 
 'International Tables Vol C Tables 4.2.6.8 and 6.1.1.4' 
 'O'  'O'   0.0106   0.0060 
 'International Tables Vol C Tables 4.2.6.8 and 6.1.1.4' 
 
_symmetry_cell_setting            Triclinic 
_symmetry_space_group_name_H-M    P-1 
 
loop_ 
 _symmetry_equiv_pos_as_xyz 
 'x, y, z' 
 '-x, -y, -z' 
 
_cell_length_a                    7.5686(6) 
_cell_length_b                    8.1133(6) 
_cell_length_c                    12.2631(6) 
_cell_angle_alpha                 98.757(5) 
_cell_angle_beta                  92.343(4) 
_cell_angle_gamma                 99.341(3) 
_cell_volume                      732.72(9) 
_cell_formula_units_Z             2 
_cell_measurement_temperature     150(2) 
_cell_measurement_reflns_used     ? 
_cell_measurement_theta_min       ? 
_cell_measurement_theta_max       ? 
 
_exptl_crystal_description        ? 
_exptl_crystal_colour             colourless
_exptl_crystal_size_max           0.28 
_exptl_crystal_size_mid           0.20 
_exptl_crystal_size_min           0.07 
_exptl_crystal_density_meas       ? 
_exptl_crystal_density_diffrn     1.433 
_exptl_crystal_density_method     ? 
_exptl_crystal_F_000              328 
_exptl_absorpt_coefficient_mu     0.124 
_exptl_absorpt_correction_type 'multiscan' 
_exptl_absorpt_correction_T_min  1.059
_exptl_absorpt_correction_T_max  0.939
_exptl_absorpt_process_details 
;
multi-scan from symmetry-related measurements (Blessing 1995)
;
_exptl_special_details 
; 
 ? 
; 
 
_diffrn_ambient_temperature       150(2) 
_diffrn_radiation_wavelength      0.71069 
_diffrn_radiation_type            MoK\a 
_diffrn_radiation_source          'fine-focus sealed tube' 
_diffrn_radiation_monochromator   graphite 
_diffrn_measurement_device        NoniusKappaCCD 
_diffrn_measurement_method        ? 
_diffrn_standards_number          ? 
_diffrn_standards_interval_count  ? 
_diffrn_standards_interval_time   ? 
_diffrn_standards_decay_%         ? 
_diffrn_reflns_number             6082 
_diffrn_reflns_av_R_equivalents   0.0429 
_diffrn_reflns_av_sigmaI/netI     0.0476 
_diffrn_reflns_limit_h_min        0 
_diffrn_reflns_limit_h_max        8 
_diffrn_reflns_limit_k_min        -9 
_diffrn_reflns_limit_k_max        9 
_diffrn_reflns_limit_l_min        -14 
_diffrn_reflns_limit_l_max        14 
_diffrn_reflns_theta_min          1.68 
_diffrn_reflns_theta_max          24.90 
_reflns_number_total              2509 
_reflns_number_observed           2024 
_reflns_observed_criterion        >2sigma(I) 
 
_computing_data_collection        maXus 
_computing_cell_refinement        maXus 
_computing_data_reduction         maXus
_computing_structure_solution     teXsan
_computing_structure_refinement   'SHELXL-93 (Sheldrick, 1993)' 
_computing_molecular_graphics     ? 
_computing_publication_material   ? 
 
_refine_special_details 
; 
 Refinement on F^2^ for ALL reflections except for 9 with very negative F^2^ 
 or flagged by the user for potential systematic errors.  Weighted R-factors 
 wR and all goodnesses of fit S are based on F^2^, conventional R-factors R 
 are based on F, with F set to zero for negative F^2^. The observed criterion 
 of F^2^ > 2sigma(F^2^) is used only for calculating _R_factor_obs etc. and is 
 not relevant to the choice of reflections for refinement.  R-factors based 
 on F^2^ are statistically about twice as large as those based on F, and R- 
 factors based on ALL data will be even larger. 
; 
 
_refine_ls_structure_factor_coef  Fsqd  
_refine_ls_matrix_type            full 
_refine_ls_weighting_scheme 
 'calc w=1/[\s^2^(Fo^2^)+(0.0724P)^2^+0.7255P] where P=(Fo^2^+2Fc^2^)/3' 
_atom_sites_solution_primary      direct 
_atom_sites_solution_secondary    difmap 
_atom_sites_solution_hydrogens    geom 
_refine_ls_hydrogen_treatment     ? 
_refine_ls_extinction_method      none 
_refine_ls_extinction_coef        ? 
_refine_ls_number_reflns          2500 
_refine_ls_number_parameters      205 
_refine_ls_number_restraints      0 
_refine_ls_R_factor_all           0.0740 
_refine_ls_R_factor_obs           0.0587 
_refine_ls_wR_factor_all          0.1743 
_refine_ls_wR_factor_obs          0.1511 
_refine_ls_goodness_of_fit_all    1.039 
_refine_ls_goodness_of_fit_obs    1.079 
_refine_ls_restrained_S_all       1.110 
_refine_ls_restrained_S_obs       1.079 
_refine_ls_shift/esd_max          0.008 
_refine_ls_shift/esd_mean         0.000 
 
loop_ 
 _atom_site_label 
 _atom_site_type_symbol 
 _atom_site_fract_x 
 _atom_site_fract_y 
 _atom_site_fract_z 
 _atom_site_U_iso_or_equiv 
 _atom_site_thermal_displace_type 
 _atom_site_occupancy 
 _atom_site_calc_flag 
 _atom_site_refinement_flags 
 _atom_site_disorder_group 
O1 O -0.1653(2) -0.0524(2) 0.07590(15) 0.0372(5) Uani 1 d . . 
N1 N -0.0461(3) -0.0641(3) 0.1638(2) 0.0295(5) Uani 1 d . . 
N2 N 0.2248(3) -0.2170(2) 0.2032(2) 0.0289(5) Uani 1 d . . 
H2N H 0.1227(39) -0.1763(34) 0.1782(22) 0.035 Uiso 1 d . . 
C1 C 0.1085(3) 0.0975(3) 0.3337(2) 0.0278(5) Uani 1 d . . 
C2 C 0.1035(3) 0.2522(3) 0.3989(2) 0.0331(6) Uani 1 d . . 
H2 H 0.0562(3) 0.3360(3) 0.3661(2) 0.040 Uiso 1 calc R . 
C3 C 0.1645(4) 0.2908(3) 0.5105(2) 0.0379(7) Uani 1 d . . 
H3 H 0.1632(4) 0.3998(3) 0.5515(2) 0.045 Uiso 1 calc R . 
C4 C 0.2254(3) 0.1697(3) 0.5592(2) 0.0357(6) Uani 1 d . . 
H4 H 0.2569(3) 0.1912(3) 0.6365(2) 0.043 Uiso 1 calc R . 
C5 C 0.3133(3) -0.1076(4) 0.5515(2) 0.0357(6) Uani 1 d . . 
H5 H 0.3408(3) -0.0820(4) 0.6292(2) 0.043 Uiso 1 calc R . 
C6 C 0.3422(3) -0.2569(4) 0.4962(2) 0.0366(6) Uani 1 d . . 
H6 H 0.3848(3) -0.3372(4) 0.5348(2) 0.044 Uiso 1 calc R . 
C7 C 0.3085(3) -0.2921(3) 0.3808(2) 0.0329(6) Uani 1 d . . 
H7 H 0.3350(3) -0.3940(3) 0.3409(2) 0.040 Uiso 1 calc R . 
C8 C 0.2379(3) -0.1809(3) 0.3251(2) 0.0263(5) Uani 1 d . . 
C9 C 0.1938(3) -0.0259(3) 0.3805(2) 0.0262(5) Uani 1 d . . 
C10 C 0.2431(3) 0.0114(3) 0.4970(2) 0.0299(6) Uani 1 d . . 
C11 C -0.0022(3) 0.0755(3) 0.2296(2) 0.0298(6) Uani 1 d . . 
H11 H -0.0439(3) 0.1721(3) 0.2099(2) 0.036 Uiso 1 calc R . 
C12 C -0.2000(4) -0.2125(3) 0.0041(2) 0.0402(7) Uani 1 d . . 
H12A H -0.2908(19) -0.2097(9) -0.0546(9) 0.060 Uiso 1 calc R . 
H12B H -0.2438(25) -0.3019(5) 0.0467(4) 0.060 Uiso 1 calc R . 
H12C H -0.0889(7) -0.2355(11) -0.0290(12) 0.060 Uiso 1 calc R . 
C13 C 0.1892(4) -0.4004(3) 0.1532(2) 0.0407(7) Uani 1 d . . 
H13A H 0.0879(17) -0.4592(6) 0.1874(12) 0.061 Uiso 1 calc R . 
H13B H 0.2961(10) -0.4506(7) 0.1659(14) 0.061 Uiso 1 calc R . 
H13C H 0.1604(26) -0.4114(3) 0.0735(4) 0.061 Uiso 1 calc R . 
C14 C 0.3848(4) -0.1242(3) 0.1567(2) 0.0362(6) Uani 1 d . . 
H14A H 0.4006(15) -0.0034(5) 0.1871(12) 0.054 Uiso 1 calc R . 
H14B H 0.3659(11) -0.1394(20) 0.0760(2) 0.054 Uiso 1 calc R . 
H14C H 0.4922(5) -0.1691(16) 0.1765(13) 0.054 Uiso 1 calc R . 
B1 B -0.3442(4) -0.5917(4) 0.1991(2) 0.0327(7) Uani 1 d . . 
F1 F -0.1947(3) -0.5831(3) 0.2683(2) 0.0675(6) Uani 1 d . . 
F2 F -0.3801(3) -0.4303(3) 0.2021(2) 0.0707(6) Uani 1 d . . 
F3 F -0.3084(5) -0.6529(4) 0.0947(2) 0.1097(10) Uani 1 d . . 
F4 F -0.4866(4) -0.6874(4) 0.2355(2) 0.1075(10) Uani 1 d . . 
 
loop_ 
 _atom_site_aniso_label 
 _atom_site_aniso_U_11 
 _atom_site_aniso_U_22 
 _atom_site_aniso_U_33 
 _atom_site_aniso_U_23 
 _atom_site_aniso_U_13 
 _atom_site_aniso_U_12 
O1 0.0397(11) 0.0344(10) 0.0382(10) 0.0038(8) -0.0067(8) 0.0123(8) 
N1 0.0279(11) 0.0298(11) 0.0315(11) 0.0050(9) 0.0002(8) 0.0075(9) 
N2 0.0291(11) 0.0260(11) 0.0316(11) -0.0018(8) 0.0016(8) 0.0102(9) 
C1 0.0243(12) 0.0263(13) 0.0308(13) 0.0013(10) 0.0077(9) 0.0002(10) 
C2 0.0290(13) 0.0263(13) 0.0426(15) 0.0022(11) 0.0104(11) 0.0020(10) 
C3 0.0327(14) 0.0316(14) 0.042(2) -0.0104(11) 0.0111(11) -0.0034(11) 
C4 0.0263(13) 0.042(2) 0.0316(14) -0.0058(11) 0.0063(10) -0.0042(11) 
C5 0.0232(13) 0.052(2) 0.0310(14) 0.0098(12) 0.0035(10) -0.0007(11) 
C6 0.0249(13) 0.046(2) 0.042(2) 0.0181(12) 0.0037(11) 0.0046(11) 
C7 0.0280(13) 0.0301(14) 0.0422(15) 0.0083(11) 0.0066(11) 0.0061(10) 
C8 0.0214(12) 0.0279(13) 0.0289(13) 0.0036(10) 0.0054(9) 0.0024(9) 
C9 0.0202(12) 0.0269(12) 0.0302(13) 0.0034(10) 0.0075(9) 0.0002(9) 
C10 0.0200(12) 0.0362(14) 0.0301(13) 0.0022(10) 0.0064(9) -0.0031(10) 
C11 0.0305(13) 0.0249(13) 0.0364(14) 0.0070(10) 0.0087(10) 0.0086(10) 
C12 0.047(2) 0.0354(15) 0.0354(15) 0.0023(11) -0.0049(12) 0.0024(12) 
C13 0.045(2) 0.0282(14) 0.045(2) -0.0061(12) -0.0021(12) 0.0090(12) 
C14 0.0373(15) 0.0394(15) 0.0318(14) 0.0044(11) 0.0085(11) 0.0063(11) 
B1 0.040(2) 0.0294(15) 0.0297(15) 0.0033(12) -0.0015(12) 0.0114(13) 
F1 0.0587(12) 0.0762(14) 0.0670(13) -0.0047(10) -0.0173(9) 0.0302(10) 
F2 0.0808(15) 0.0553(12) 0.086(2) 0.0178(10) 0.0042(11) 0.0352(11) 
F3 0.176(3) 0.114(2) 0.0408(12) -0.0194(12) 0.0058(14) 0.061(2) 
F4 0.089(2) 0.106(2) 0.118(2) 0.053(2) -0.0100(15) -0.041(2) 
 
_geom_special_details 
; 
 All esds (except the esd in the dihedral angle between two l.s. planes) 
 are estimated using the full covariance matrix.  The cell esds are taken 
 into account individually in the estimation of esds in distances, angles 
 and torsion angles; correlations between esds in cell parameters are only 
 used when they are defined by crystal symmetry.  An approximate (isotropic) 
 treatment of cell esds is used for estimating esds involving l.s. planes. 
; 
 
loop_ 
 _geom_bond_atom_site_label_1 
 _geom_bond_atom_site_label_2 
 _geom_bond_distance 
 _geom_bond_site_symmetry_2 
 _geom_bond_publ_flag 
O1 N1 1.401(3) . ? 
O1 C12 1.433(3) . ? 
N1 C11 1.274(3) . ? 
N2 C8 1.475(3) . ? 
N2 C13 1.497(3) . ? 
N2 C14 1.500(3) . ? 
C1 C2 1.389(3) . ? 
C1 C9 1.450(3) . ? 
C1 C11 1.469(3) . ? 
C2 C3 1.398(4) . ? 
C3 C4 1.356(4) . ? 
C4 C10 1.420(4) . ? 
C5 C6 1.351(4) . ? 
C5 C10 1.413(4) . ? 
C6 C7 1.405(4) . ? 
C7 C8 1.371(4) . ? 
C8 C9 1.432(3) . ? 
C9 C10 1.435(3) . ? 
B1 F3 1.355(4) . ? 
B1 F4 1.355(4) . ? 
B1 F1 1.372(3) . ? 
B1 F2 1.376(3) . ? 
 
loop_ 
 _geom_angle_atom_site_label_1 
 _geom_angle_atom_site_label_2 
 _geom_angle_atom_site_label_3 
 _geom_angle 
 _geom_angle_site_symmetry_1 
 _geom_angle_site_symmetry_3 
 _geom_angle_publ_flag 
N1 O1 C12 108.3(2) . . ? 
C11 N1 O1 112.5(2) . . ? 
C8 N2 C13 115.7(2) . . ? 
C8 N2 C14 111.2(2) . . ? 
C13 N2 C14 111.0(2) . . ? 
C2 C1 C9 118.7(2) . . ? 
C2 C1 C11 111.6(2) . . ? 
C9 C1 C11 128.9(2) . . ? 
C1 C2 C3 123.3(3) . . ? 
C4 C3 C2 118.8(2) . . ? 
C3 C4 C10 121.3(2) . . ? 
C6 C5 C10 121.7(2) . . ? 
C5 C6 C7 119.2(2) . . ? 
C8 C7 C6 120.7(2) . . ? 
C7 C8 C9 122.3(2) . . ? 
C7 C8 N2 117.6(2) . . ? 
C9 C8 N2 119.7(2) . . ? 
C8 C9 C10 115.1(2) . . ? 
C8 C9 C1 128.3(2) . . ? 
C10 C9 C1 116.6(2) . . ? 
C5 C10 C4 118.7(2) . . ? 
C5 C10 C9 120.6(2) . . ? 
C4 C10 C9 120.7(2) . . ? 
N1 C11 C1 124.5(2) . . ? 
F3 B1 F4 112.7(3) . . ? 
F3 B1 F1 108.8(3) . . ? 
F4 B1 F1 109.7(2) . . ? 
F3 B1 F2 109.0(2) . . ? 
F4 B1 F2 108.5(3) . . ? 
F1 B1 F2 108.0(2) . . ? 
 
_refine_diff_density_max    0.539 
_refine_diff_density_min   -0.406 
_refine_diff_density_rms    0.054 
