 
data_bj0001 
  
_audit_creation_method            SHELXL-97 
_chemical_name_systematic 
; 
 ? 
; 
_chemical_name_common             ? 
_chemical_melting_point           ? 
_chemical_formula_moiety          ? 
_chemical_formula_sum 
 'C34 H33 B F4 O22 Ru6' 
_chemical_formula_weight          1486.83 
  
loop_ 
 _atom_type_symbol 
 _atom_type_description 
 _atom_type_scat_dispersion_real 
 _atom_type_scat_dispersion_imag 
 _atom_type_scat_source 
 'C'  'C'   0.0033   0.0016 
 'International Tables Vol C Tables 4.2.6.8 and 6.1.1.4' 
 'H'  'H'   0.0000   0.0000 
 'International Tables Vol C Tables 4.2.6.8 and 6.1.1.4' 
 'B'  'B'   0.0013   0.0007 
 'International Tables Vol C Tables 4.2.6.8 and 6.1.1.4' 
 'O'  'O'   0.0106   0.0060 
 'International Tables Vol C Tables 4.2.6.8 and 6.1.1.4' 
 'F'  'F'   0.0171   0.0103 
 'International Tables Vol C Tables 4.2.6.8 and 6.1.1.4' 
 'Ru'  'Ru'  -1.2594   0.8363 
 'International Tables Vol C Tables 4.2.6.8 and 6.1.1.4' 
  
_symmetry_cell_setting            Triclinic 
_symmetry_space_group_name_H-M    P-1 
  
loop_ 
 _symmetry_equiv_pos_as_xyz 
 'x, y, z' 
 '-x, -y, -z' 
  
_cell_length_a                    9.7910(4) 
_cell_length_b                    14.1720(7) 
_cell_length_c                    17.0020(9) 
_cell_angle_alpha                 96.476(2) 
_cell_angle_beta                  101.606(3) 
_cell_angle_gamma                 95.725(3) 
_cell_volume                      2277.94(19) 
_cell_formula_units_Z             2 
_cell_measurement_temperature     180(2) 
_cell_measurement_reflns_used     11134 
_cell_measurement_theta_min       2.91 
_cell_measurement_theta_max       25.03 
  
_exptl_crystal_description        plate 
_exptl_crystal_colour             red 
_exptl_crystal_size_max           0.12 
_exptl_crystal_size_mid           0.10 
_exptl_crystal_size_min           0.02 
_exptl_crystal_density_meas       ? 
_exptl_crystal_density_diffrn     2.168 
_exptl_crystal_density_method     'not measured' 
_exptl_crystal_F_000              1436 
_exptl_absorpt_coefficient_mu     2.035 
_exptl_absorpt_correction_type    none 
_exptl_absorpt_correction_T_min   ? 
_exptl_absorpt_correction_T_max   ? 
_exptl_absorpt_process_details    ? 
  
_exptl_special_details 
; 
 ? 
; 
  
_diffrn_ambient_temperature       180(2) 
_diffrn_radiation_wavelength      0.71070 
_diffrn_radiation_type            MoK\a 
_diffrn_radiation_source          'fine-focus sealed tube' 
_diffrn_radiation_monochromator   graphite 
_diffrn_measurement_device_type   'Nonius KappaCCD' 
_diffrn_measurement_method        CCD 
_diffrn_detector_area_resol_mean  ? 
_diffrn_standards_number          ? 
_diffrn_standards_interval_count  ? 
_diffrn_standards_interval_time   ? 
_diffrn_standards_decay_%         ? 
_diffrn_reflns_number             12069 
_diffrn_reflns_av_R_equivalents   0.0478 
_diffrn_reflns_av_sigmaI/netI     0.0837 
_diffrn_reflns_limit_h_min        0 
_diffrn_reflns_limit_h_max        11 
_diffrn_reflns_limit_k_min        -16 
_diffrn_reflns_limit_k_max        16 
_diffrn_reflns_limit_l_min        -20 
_diffrn_reflns_limit_l_max        19 
_diffrn_reflns_theta_min          3.03 
_diffrn_reflns_theta_max          25.03 
_reflns_number_total              7901 
_reflns_number_gt                 5642 
_reflns_threshold_expression      >2sigma(I) 
  
_computing_data_collection         
; 
"Collect" data collection software, Nonius B.V., 1998. 
; 
_computing_cell_refinement        'HKL Scalepack (Otwinowski & Minor 1997)' 
_computing_data_reduction          
; 
"Collect" data collection software, Nonius B.V., 1998. 
; 
_computing_structure_solution     'SHELXS-97 (Sheldrick, 1990)' 
_computing_structure_refinement   'SHELXL-97 (Sheldrick, 1997)' 
_computing_molecular_graphics     ? 
_computing_publication_material   ? 
  
_refine_special_details 
; 
 Refinement of F^2^ against ALL reflections.  The weighted R-factor wR and 
 goodness of fit S are based on F^2^, conventional R-factors R are based 
 on F, with F set to zero for negative F^2^. The threshold expression of 
 F^2^ > 2sigma(F^2^) is used only for calculating R-factors(gt) etc. and is 
 not relevant to the choice of reflections for refinement.  R-factors based 
 on F^2^ are statistically about twice as large as those based on F, and R- 
 factors based on ALL data will be even larger. 
; 
  
_refine_ls_structure_factor_coef  Fsqd 
_refine_ls_matrix_type            full 
_refine_ls_weighting_scheme       calc 
_refine_ls_weighting_details 
 'calc w=1/[\s^2^(Fo^2^)+(0.0131P)^2^+0.3692P] where P=(Fo^2^+2Fc^2^)/3' 
_atom_sites_solution_primary      direct 
_atom_sites_solution_secondary    difmap 
_atom_sites_solution_hydrogens    geom 
_refine_ls_hydrogen_treatment     mixed 
_refine_ls_extinction_method      none 
_refine_ls_extinction_coef        ? 
_refine_ls_number_reflns          7901 
_refine_ls_number_parameters      606 
_refine_ls_number_restraints      0 
_refine_ls_R_factor_all           0.0708 
_refine_ls_R_factor_gt            0.0401 
_refine_ls_wR_factor_ref          0.0802 
_refine_ls_wR_factor_gt           0.0718 
_refine_ls_goodness_of_fit_ref    1.021 
_refine_ls_restrained_S_all       1.021 
_refine_ls_shift/su_max           0.003 
_refine_ls_shift/su_mean          0.000 
  
loop_ 
 _atom_site_label 
 _atom_site_type_symbol 
 _atom_site_fract_x 
 _atom_site_fract_y 
 _atom_site_fract_z 
 _atom_site_U_iso_or_equiv 
 _atom_site_adp_type 
 _atom_site_occupancy 
 _atom_site_symmetry_multiplicity 
 _atom_site_calc_flag 
 _atom_site_refinement_flags 
 _atom_site_disorder_assembly 
 _atom_site_disorder_group 
Ru1 Ru 0.09109(4) 0.21227(3) 0.74601(3) 0.02032(12) Uani 1 1 d . . . 
Ru2 Ru 0.38822(4) 0.27604(3) 0.79755(3) 0.02501(13) Uani 1 1 d . . . 
Ru3 Ru 0.19846(4) 0.37188(3) 0.87151(3) 0.02388(13) Uani 1 1 d . . . 
Ru4 Ru 0.06703(4) 0.19449(3) 0.91022(3) 0.02477(13) Uani 1 1 d . . . 
Ru5 Ru 0.25107(4) 0.08616(3) 0.83275(3) 0.02814(13) Uani 1 1 d . . . 
Ru6 Ru 0.36468(4) 0.23898(3) 0.96054(3) 0.02672(13) Uani 1 1 d . . . 
O100 O 0.1509(3) 0.2847(2) 0.4212(2) 0.0217(8) Uani 1 1 d . . . 
B1 B -0.1896(7) 0.1788(5) 0.4299(4) 0.0363(18) Uani 1 1 d . . . 
F1 F -0.0744(3) 0.1260(2) 0.4292(2) 0.0529(10) Uani 1 1 d . . . 
F2 F -0.1321(3) 0.2736(3) 0.4503(3) 0.0629(12) Uani 1 1 d . . . 
F3 F -0.2772(4) 0.1626(4) 0.3554(2) 0.0922(17) Uani 1 1 d . . . 
F4 F -0.2587(3) 0.1521(3) 0.4875(2) 0.0575(11) Uani 1 1 d . . . 
O1 O 0.4478(4) 0.2845(3) 0.6314(3) 0.0546(14) Uani 1 1 d . . . 
O2 O 0.6993(4) 0.3468(3) 0.8389(3) 0.0572(14) Uani 1 1 d . . . 
O3 O 0.3640(4) 0.4803(3) 0.7716(2) 0.0392(11) Uani 1 1 d . . . 
O4 O 0.3153(5) 0.5508(3) 0.9893(3) 0.0601(14) Uani 1 1 d . . . 
O5 O -0.0428(4) 0.4784(3) 0.8070(3) 0.0441(11) Uani 1 1 d . . . 
O6 O 0.4069(5) 0.4040(4) 1.0960(3) 0.0832(19) Uani 1 1 d . . . 
O7 O 0.6785(4) 0.2281(3) 0.9766(3) 0.0526(13) Uani 1 1 d . . . 
O8 O 0.3766(5) 0.1135(4) 1.0946(3) 0.0854(19) Uani 1 1 d . . . 
O9 O -0.2265(4) 0.0970(3) 0.8312(3) 0.0594(14) Uani 1 1 d . . . 
O10 O -0.0358(4) 0.3663(3) 0.9950(3) 0.0428(11) Uani 1 1 d . . . 
O11 O 0.0606(5) 0.0897(3) 1.0558(3) 0.0565(13) Uani 1 1 d . . . 
O12 O 0.3462(6) -0.0507(4) 0.9519(4) 0.096(2) Uani 1 1 d . . . 
O13 O 0.0177(4) -0.0687(3) 0.7417(3) 0.0546(13) Uani 1 1 d . . . 
O14 O 0.4703(5) 0.0417(4) 0.7332(3) 0.0684(16) Uani 1 1 d . . . 
O15 O 0.1397(3) 0.3455(2) 0.5989(2) 0.0249(9) Uani 1 1 d . . . 
O16 O 0.2099(3) 0.4835(2) 0.4995(2) 0.0282(9) Uani 1 1 d . . . 
O17 O 0.3559(4) 0.4289(3) 0.3760(2) 0.0338(10) Uani 1 1 d . . . 
O18 O 0.3064(4) 0.2326(3) 0.3000(2) 0.0366(10) Uani 1 1 d . . . 
O19 O 0.2906(3) 0.1092(3) 0.4246(2) 0.0301(9) Uani 1 1 d . . . 
O20 O 0.1889(3) 0.1704(2) 0.5647(2) 0.0247(9) Uani 1 1 d . . . 
O21 O -0.0378(5) 0.3554(3) 0.2931(3) 0.0531(13) Uani 1 1 d . . . 
C1 C 0.4182(5) 0.2761(4) 0.6920(4) 0.0327(15) Uani 1 1 d . . . 
C2 C 0.5820(6) 0.3184(4) 0.8268(3) 0.0363(16) Uani 1 1 d . . . 
C3 C 0.3339(5) 0.4114(4) 0.8003(3) 0.0268(14) Uani 1 1 d . . . 
C4 C 0.2698(6) 0.4816(4) 0.9467(4) 0.0366(16) Uani 1 1 d . . . 
C5 C 0.0496(6) 0.4376(4) 0.8303(3) 0.0295(14) Uani 1 1 d . . . 
C6 C 0.3890(6) 0.3442(5) 1.0423(4) 0.0490(18) Uani 1 1 d . . . 
C7 C 0.5608(6) 0.2339(4) 0.9674(4) 0.0356(15) Uani 1 1 d . . . 
C8 C 0.3666(6) 0.1579(5) 1.0415(4) 0.052(2) Uani 1 1 d . . . 
C9 C -0.1156(6) 0.1339(4) 0.8597(4) 0.0389(16) Uani 1 1 d . . . 
C10 C 0.0106(6) 0.3099(4) 0.9584(4) 0.0315(14) Uani 1 1 d . . . 
C11 C 0.0658(6) 0.1292(4) 1.0016(4) 0.0357(15) Uani 1 1 d . . . 
C12 C 0.3149(7) 0.0029(5) 0.9090(5) 0.059(2) Uani 1 1 d . . . 
C13 C 0.1057(6) -0.0098(4) 0.7737(3) 0.0375(16) Uani 1 1 d . . . 
C14 C 0.3919(6) 0.0660(4) 0.7706(4) 0.0480(19) Uani 1 1 d . . . 
C15 C 0.0589(5) 0.2778(4) 0.6260(3) 0.0247(13) Uani 1 1 d . . . 
C16 C -0.0503(5) 0.2961(4) 0.6658(3) 0.0243(13) Uani 1 1 d . . . 
H16 H -0.0705 0.3598 0.6774 0.029 Uiso 1 1 calc R . . 
C17 C -0.1296(5) 0.2186(4) 0.6886(3) 0.0336(15) Uani 1 1 d . . . 
H17 H -0.2038 0.2305 0.7153 0.040 Uiso 1 1 calc R . . 
C18 C -0.1002(5) 0.1253(4) 0.6723(3) 0.0293(14) Uani 1 1 d . . . 
H18 H -0.1542 0.0741 0.6880 0.035 Uiso 1 1 calc R . . 
C19 C 0.0086(5) 0.1065(4) 0.6327(3) 0.0250(13) Uani 1 1 d . . . 
H19 H 0.0292 0.0427 0.6226 0.030 Uiso 1 1 calc R . . 
C20 C 0.0878(5) 0.1818(4) 0.6078(3) 0.0228(13) Uani 1 1 d . . . 
C21 C 0.1090(5) 0.4437(4) 0.6096(3) 0.0312(14) Uani 1 1 d . . . 
H21A H 0.1080 0.4641 0.6671 0.037 Uiso 1 1 calc R . . 
H21B H 0.0155 0.4490 0.5762 0.037 Uiso 1 1 calc R . . 
C22 C 0.2199(5) 0.5058(4) 0.5843(3) 0.0288(14) Uani 1 1 d . . . 
H22A H 0.2080 0.5739 0.5974 0.035 Uiso 1 1 calc R . . 
H22B H 0.3138 0.4955 0.6141 0.035 Uiso 1 1 calc R . . 
C23 C 0.3052(5) 0.5485(4) 0.4714(4) 0.0316(15) Uani 1 1 d . . . 
H23A H 0.4021 0.5490 0.5028 0.038 Uiso 1 1 calc R . . 
H23B H 0.2792 0.6141 0.4789 0.038 Uiso 1 1 calc R . . 
C24 C 0.2978(6) 0.5168(4) 0.3832(4) 0.0349(15) Uani 1 1 d . . . 
H24A H 0.1989 0.5079 0.3529 0.042 Uiso 1 1 calc R . . 
H24B H 0.3515 0.5659 0.3605 0.042 Uiso 1 1 calc R . . 
C25 C 0.3639(6) 0.3986(4) 0.2953(4) 0.0387(16) Uani 1 1 d . . . 
H25A H 0.4293 0.4455 0.2776 0.046 Uiso 1 1 calc R . . 
H25B H 0.2700 0.3952 0.2592 0.046 Uiso 1 1 calc R . . 
C26 C 0.4144(6) 0.3022(4) 0.2892(4) 0.0409(17) Uani 1 1 d . . . 
H26A H 0.4371 0.2863 0.2355 0.049 Uiso 1 1 calc R . . 
H26B H 0.5006 0.3027 0.3314 0.049 Uiso 1 1 calc R . . 
C27 C 0.3458(6) 0.1371(4) 0.2986(4) 0.0411(16) Uani 1 1 d . . . 
H27A H 0.4179 0.1306 0.2657 0.049 Uiso 1 1 calc R . . 
H27B H 0.2626 0.0903 0.2724 0.049 Uiso 1 1 calc R . . 
C28 C 0.4027(6) 0.1143(5) 0.3822(4) 0.0434(17) Uani 1 1 d . . . 
H28A H 0.4414 0.0524 0.3788 0.052 Uiso 1 1 calc R . . 
H28B H 0.4791 0.1648 0.4113 0.052 Uiso 1 1 calc R . . 
C29 C 0.3375(5) 0.0786(4) 0.5012(3) 0.0309(14) Uani 1 1 d . . . 
H29A H 0.4178 0.1241 0.5335 0.037 Uiso 1 1 calc R . . 
H29B H 0.3695 0.0147 0.4935 0.037 Uiso 1 1 calc R . . 
C30 C 0.2196(5) 0.0738(4) 0.5451(3) 0.0297(14) Uani 1 1 d . . . 
H30A H 0.1355 0.0340 0.5104 0.036 Uiso 1 1 calc R . . 
H30B H 0.2470 0.0447 0.5953 0.036 Uiso 1 1 calc R . . 
C31 C -0.1019(6) 0.3112(4) 0.2297(4) 0.0385(16) Uani 1 1 d . . . 
C32 C -0.2585(6) 0.3021(6) 0.2064(5) 0.072(2) Uani 1 1 d . . . 
H32A H -0.2935 0.3445 0.2453 0.108 Uiso 1 1 calc R . . 
H32B H -0.2976 0.2357 0.2066 0.108 Uiso 1 1 calc R . . 
H32C H -0.2871 0.3199 0.1520 0.108 Uiso 1 1 calc R . . 
C33 C -0.0301(7) 0.2629(5) 0.1696(4) 0.058(2) Uani 1 1 d . . . 
H33A H -0.0130 0.3063 0.1307 0.087 Uiso 1 1 calc R . . 
H33B H -0.0898 0.2047 0.1408 0.087 Uiso 1 1 calc R . . 
H33C H 0.0598 0.2461 0.1980 0.087 Uiso 1 1 calc R . . 
C100 C 0.2224(5) 0.2269(3) 0.8483(3) 0.0191(12) Uani 1 1 d . . . 
  
loop_ 
 _atom_site_aniso_label 
 _atom_site_aniso_U_11 
 _atom_site_aniso_U_22 
 _atom_site_aniso_U_33 
 _atom_site_aniso_U_23 
 _atom_site_aniso_U_13 
 _atom_site_aniso_U_12 
Ru1 0.0221(2) 0.0212(2) 0.0181(3) 0.00262(19) 0.00545(18) 0.00263(19) 
Ru2 0.0228(2) 0.0288(3) 0.0238(3) 0.0007(2) 0.00889(19) 0.0005(2) 
Ru3 0.0280(2) 0.0196(3) 0.0245(3) 0.0006(2) 0.0091(2) 0.00124(19) 
Ru4 0.0269(2) 0.0261(3) 0.0219(3) 0.0038(2) 0.0084(2) -0.0008(2) 
Ru5 0.0322(3) 0.0209(3) 0.0291(3) 0.0026(2) 0.0006(2) 0.0059(2) 
Ru6 0.0270(2) 0.0295(3) 0.0215(3) 0.0020(2) 0.0020(2) 0.0020(2) 
O100 0.0246(18) 0.022(2) 0.022(2) 0.0068(16) 0.0104(15) 0.0075(15) 
B1 0.026(4) 0.045(5) 0.037(5) 0.007(4) 0.008(3) 0.003(3) 
F1 0.0419(19) 0.035(2) 0.081(3) -0.0002(19) 0.0138(19) 0.0070(17) 
F2 0.058(2) 0.034(2) 0.108(4) 0.016(2) 0.040(2) 0.0112(18) 
F3 0.047(2) 0.177(5) 0.045(3) 0.016(3) -0.008(2) 0.007(3) 
F4 0.046(2) 0.079(3) 0.052(3) 0.029(2) 0.0164(19) -0.001(2) 
O1 0.050(3) 0.075(4) 0.034(3) -0.007(2) 0.020(2) -0.024(2) 
O2 0.028(2) 0.091(4) 0.049(3) 0.011(3) 0.007(2) -0.008(2) 
O3 0.045(2) 0.030(3) 0.045(3) 0.009(2) 0.017(2) -0.002(2) 
O4 0.076(3) 0.042(3) 0.055(3) -0.017(2) 0.017(3) -0.007(2) 
O5 0.051(3) 0.040(3) 0.051(3) 0.014(2) 0.018(2) 0.024(2) 
O6 0.099(4) 0.090(4) 0.043(4) -0.026(3) -0.017(3) 0.033(3) 
O7 0.040(3) 0.062(3) 0.064(3) 0.027(2) 0.012(2) 0.019(2) 
O8 0.094(4) 0.099(5) 0.059(4) 0.048(4) -0.004(3) -0.011(3) 
O9 0.041(2) 0.080(4) 0.049(3) -0.008(3) 0.011(2) -0.019(3) 
O10 0.052(3) 0.037(3) 0.049(3) 0.005(2) 0.030(2) 0.011(2) 
O11 0.093(3) 0.049(3) 0.040(3) 0.023(2) 0.031(3) 0.014(3) 
O12 0.137(5) 0.049(4) 0.079(4) 0.035(3) -0.043(4) 0.008(3) 
O13 0.061(3) 0.039(3) 0.049(3) 0.010(2) -0.013(2) -0.014(2) 
O14 0.054(3) 0.066(4) 0.085(4) -0.025(3) 0.027(3) 0.021(3) 
O15 0.034(2) 0.021(2) 0.025(2) 0.0076(17) 0.0124(17) 0.0081(17) 
O16 0.033(2) 0.027(2) 0.025(2) 0.0073(17) 0.0080(17) 0.0014(17) 
O17 0.041(2) 0.032(2) 0.033(3) 0.0068(19) 0.0134(19) 0.0076(18) 
O18 0.037(2) 0.031(2) 0.045(3) 0.005(2) 0.0164(19) 0.0059(19) 
O19 0.0265(19) 0.038(2) 0.031(3) 0.0083(19) 0.0136(18) 0.0111(17) 
O20 0.032(2) 0.019(2) 0.024(2) 0.0023(16) 0.0063(17) 0.0051(16) 
O21 0.073(3) 0.049(3) 0.034(3) 0.001(2) 0.006(2) 0.008(2) 
C1 0.028(3) 0.040(4) 0.028(4) -0.004(3) 0.013(3) -0.010(3) 
C2 0.038(3) 0.045(4) 0.025(4) 0.003(3) 0.007(3) 0.003(3) 
C3 0.028(3) 0.025(3) 0.024(3) -0.001(3) 0.004(2) -0.003(3) 
C4 0.038(3) 0.035(4) 0.036(4) -0.004(3) 0.012(3) -0.003(3) 
C5 0.037(3) 0.023(3) 0.031(4) 0.001(3) 0.015(3) 0.005(3) 
C6 0.049(4) 0.063(5) 0.030(4) -0.001(4) -0.006(3) 0.023(3) 
C7 0.038(3) 0.034(4) 0.040(4) 0.018(3) 0.011(3) 0.012(3) 
C8 0.047(4) 0.070(5) 0.036(5) 0.021(4) 0.002(3) -0.008(4) 
C9 0.040(4) 0.044(4) 0.033(4) -0.002(3) 0.017(3) -0.005(3) 
C10 0.035(3) 0.033(4) 0.030(4) 0.005(3) 0.013(3) 0.003(3) 
C11 0.053(4) 0.022(3) 0.035(4) 0.004(3) 0.017(3) 0.000(3) 
C12 0.076(5) 0.036(4) 0.052(5) 0.013(4) -0.020(4) 0.005(4) 
C13 0.053(4) 0.034(4) 0.023(4) 0.005(3) 0.002(3) 0.005(3) 
C14 0.044(4) 0.035(4) 0.056(5) -0.011(3) -0.005(3) 0.012(3) 
C15 0.026(3) 0.025(3) 0.021(3) 0.007(3) 0.000(2) 0.002(3) 
C16 0.025(3) 0.034(3) 0.020(3) 0.008(3) 0.008(2) 0.015(3) 
C17 0.023(3) 0.054(4) 0.026(4) 0.010(3) 0.008(3) 0.004(3) 
C18 0.026(3) 0.037(4) 0.021(3) 0.007(3) -0.001(3) -0.005(3) 
C19 0.029(3) 0.022(3) 0.022(3) 0.000(2) 0.003(2) 0.000(2) 
C20 0.022(3) 0.032(3) 0.014(3) 0.003(2) 0.002(2) 0.005(2) 
C21 0.046(3) 0.024(3) 0.027(4) 0.002(3) 0.013(3) 0.014(3) 
C22 0.039(3) 0.018(3) 0.031(4) 0.006(3) 0.011(3) 0.004(3) 
C23 0.029(3) 0.024(3) 0.044(4) 0.013(3) 0.012(3) -0.002(3) 
C24 0.043(3) 0.027(4) 0.038(4) 0.007(3) 0.017(3) -0.001(3) 
C25 0.033(3) 0.049(4) 0.035(4) 0.008(3) 0.015(3) -0.003(3) 
C26 0.036(3) 0.042(4) 0.047(4) 0.004(3) 0.017(3) 0.001(3) 
C27 0.057(4) 0.038(4) 0.037(4) 0.010(3) 0.024(3) 0.017(3) 
C28 0.045(4) 0.050(4) 0.046(4) 0.013(3) 0.024(3) 0.024(3) 
C29 0.032(3) 0.029(3) 0.035(4) 0.004(3) 0.010(3) 0.012(3) 
C30 0.039(3) 0.020(3) 0.031(4) 0.002(3) 0.009(3) 0.007(3) 
C31 0.051(4) 0.023(3) 0.046(4) 0.017(3) 0.013(3) 0.009(3) 
C32 0.049(4) 0.080(6) 0.080(6) -0.011(5) 0.007(4) 0.017(4) 
C33 0.069(5) 0.065(5) 0.041(5) -0.001(4) 0.023(4) 0.007(4) 
C100 0.026(3) 0.014(3) 0.020(3) 0.004(2) 0.009(2) 0.006(2) 
  
_geom_special_details 
; 
 All esds (except the esd in the dihedral angle between two l.s. planes) 
 are estimated using the full covariance matrix.  The cell esds are taken 
 into account individually in the estimation of esds in distances, angles 
 and torsion angles; correlations between esds in cell parameters are only 
 used when they are defined by crystal symmetry.  An approximate (isotropic) 
 treatment of cell esds is used for estimating esds involving l.s. planes. 
; 
  
loop_ 
 _geom_bond_atom_site_label_1 
 _geom_bond_atom_site_label_2 
 _geom_bond_distance 
 _geom_bond_site_symmetry_2 
 _geom_bond_publ_flag 
Ru1 C100 1.920(5) . ? 
Ru1 C17 2.200(5) . ? 
Ru1 C18 2.202(5) . ? 
Ru1 C19 2.257(5) . ? 
Ru1 C16 2.263(5) . ? 
Ru1 C15 2.314(5) . ? 
Ru1 C20 2.333(5) . ? 
Ru1 Ru5 2.8367(6) . ? 
Ru1 Ru3 2.8825(6) . ? 
Ru1 Ru2 2.8842(5) . ? 
Ru1 Ru4 2.8853(6) . ? 
Ru2 C1 1.876(6) . ? 
Ru2 C2 1.880(6) . ? 
Ru2 C3 2.039(6) . ? 
Ru2 C100 2.083(5) . ? 
Ru2 Ru3 2.8171(6) . ? 
Ru2 Ru6 2.9273(7) . ? 
Ru2 Ru5 3.0609(6) . ? 
Ru3 C5 1.868(6) . ? 
Ru3 C4 1.875(6) . ? 
Ru3 C3 2.047(6) . ? 
Ru3 C100 2.093(5) . ? 
Ru3 Ru4 2.9115(6) . ? 
Ru3 Ru6 2.9581(7) . ? 
Ru4 C9 1.892(6) . ? 
Ru4 C11 1.897(7) . ? 
Ru4 C10 1.927(6) . ? 
Ru4 C100 2.060(5) . ? 
Ru4 Ru6 2.8515(6) . ? 
Ru4 Ru5 2.8965(7) . ? 
Ru5 C13 1.901(6) . ? 
Ru5 C12 1.905(7) . ? 
Ru5 C14 1.922(8) . ? 
Ru5 C100 2.037(5) . ? 
Ru5 Ru6 2.8521(6) . ? 
Ru6 C6 1.882(7) . ? 
Ru6 C8 1.887(8) . ? 
Ru6 C7 1.909(6) . ? 
Ru6 C100 2.102(5) . ? 
B1 F3 1.360(7) . ? 
B1 F4 1.364(8) . ? 
B1 F2 1.381(8) . ? 
B1 F1 1.415(8) . ? 
O1 C1 1.139(6) . ? 
O2 C2 1.147(6) . ? 
O3 C3 1.177(6) . ? 
O4 C4 1.144(6) . ? 
O5 C5 1.149(6) . ? 
O6 C6 1.146(7) . ? 
O7 C7 1.144(6) . ? 
O8 C8 1.152(8) . ? 
O9 C9 1.143(6) . ? 
O10 C10 1.143(6) . ? 
O11 C11 1.138(7) . ? 
O12 C12 1.133(8) . ? 
O13 C13 1.140(6) . ? 
O14 C14 1.146(7) . ? 
O15 C15 1.361(6) . ? 
O15 C21 1.452(6) . ? 
O16 C22 1.423(6) . ? 
O16 C23 1.433(6) . ? 
O17 C25 1.412(6) . ? 
O17 C24 1.423(6) . ? 
O18 C26 1.428(6) . ? 
O18 C27 1.444(7) . ? 
O19 C29 1.423(6) . ? 
O19 C28 1.430(6) . ? 
O20 C20 1.357(6) . ? 
O20 C30 1.447(6) . ? 
O21 C31 1.202(7) . ? 
C15 C16 1.406(7) . ? 
C15 C20 1.429(7) . ? 
C16 C17 1.417(7) . ? 
C16 H16 0.9500 . ? 
C17 C18 1.391(8) . ? 
C17 H17 0.9500 . ? 
C18 C19 1.402(7) . ? 
C18 H18 0.9500 . ? 
C19 C20 1.410(7) . ? 
C19 H19 0.9500 . ? 
C21 C22 1.490(7) . ? 
C21 H21A 0.9900 . ? 
C21 H21B 0.9900 . ? 
C22 H22A 0.9900 . ? 
C22 H22B 0.9900 . ? 
C23 C24 1.501(8) . ? 
C23 H23A 0.9900 . ? 
C23 H23B 0.9900 . ? 
C24 H24A 0.9900 . ? 
C24 H24B 0.9900 . ? 
C25 C26 1.499(8) . ? 
C25 H25A 0.9900 . ? 
C25 H25B 0.9900 . ? 
C26 H26A 0.9900 . ? 
C26 H26B 0.9900 . ? 
C27 C28 1.501(8) . ? 
C27 H27A 0.9900 . ? 
C27 H27B 0.9900 . ? 
C28 H28A 0.9900 . ? 
C28 H28B 0.9900 . ? 
C29 C30 1.495(7) . ? 
C29 H29A 0.9900 . ? 
C29 H29B 0.9900 . ? 
C30 H30A 0.9900 . ? 
C30 H30B 0.9900 . ? 
C31 C32 1.493(8) . ? 
C31 C33 1.495(8) . ? 
C32 H32A 0.9800 . ? 
C32 H32B 0.9800 . ? 
C32 H32C 0.9800 . ? 
C33 H33A 0.9800 . ? 
C33 H33B 0.9800 . ? 
C33 H33C 0.9800 . ? 
  
loop_ 
 _geom_angle_atom_site_label_1 
 _geom_angle_atom_site_label_2 
 _geom_angle_atom_site_label_3 
 _geom_angle 
 _geom_angle_site_symmetry_1 
 _geom_angle_site_symmetry_3 
 _geom_angle_publ_flag 
C100 Ru1 C17 143.8(2) . . ? 
C100 Ru1 C18 143.5(2) . . ? 
C17 Ru1 C18 36.8(2) . . ? 
C100 Ru1 C19 141.1(2) . . ? 
C17 Ru1 C19 65.8(2) . . ? 
C18 Ru1 C19 36.62(18) . . ? 
C100 Ru1 C16 141.3(2) . . ? 
C17 Ru1 C16 36.98(19) . . ? 
C18 Ru1 C16 66.3(2) . . ? 
C19 Ru1 C16 77.3(2) . . ? 
C100 Ru1 C15 139.36(18) . . ? 
C17 Ru1 C15 65.22(19) . . ? 
C18 Ru1 C15 77.09(19) . . ? 
C19 Ru1 C15 64.78(19) . . ? 
C16 Ru1 C15 35.77(18) . . ? 
C100 Ru1 C20 139.43(19) . . ? 
C17 Ru1 C20 76.70(19) . . ? 
C18 Ru1 C20 64.97(19) . . ? 
C19 Ru1 C20 35.72(18) . . ? 
C16 Ru1 C20 64.62(18) . . ? 
C15 Ru1 C20 35.82(18) . . ? 
C100 Ru1 Ru5 45.89(14) . . ? 
C17 Ru1 Ru5 138.13(16) . . ? 
C18 Ru1 Ru5 106.93(16) . . ? 
C19 Ru1 Ru5 95.62(14) . . ? 
C16 Ru1 Ru5 172.72(13) . . ? 
C15 Ru1 Ru5 142.30(14) . . ? 
C20 Ru1 Ru5 110.64(13) . . ? 
C100 Ru1 Ru3 46.54(14) . . ? 
C17 Ru1 Ru3 111.38(16) . . ? 
C18 Ru1 Ru3 144.95(15) . . ? 
C19 Ru1 Ru3 169.97(14) . . ? 
C16 Ru1 Ru3 94.77(13) . . ? 
C15 Ru1 Ru3 105.20(13) . . ? 
C20 Ru1 Ru3 135.03(13) . . ? 
Ru5 Ru1 Ru3 92.422(18) . . ? 
C100 Ru1 Ru2 46.21(14) . . ? 
C17 Ru1 Ru2 157.18(16) . . ? 
C18 Ru1 Ru2 156.49(15) . . ? 
C19 Ru1 Ru2 120.16(13) . . ? 
C16 Ru1 Ru2 120.40(13) . . ? 
C15 Ru1 Ru2 96.37(12) . . ? 
C20 Ru1 Ru2 96.42(11) . . ? 
Ru5 Ru1 Ru2 64.686(16) . . ? 
Ru3 Ru1 Ru2 58.484(14) . . ? 
C100 Ru1 Ru4 45.50(14) . . ? 
C17 Ru1 Ru4 100.72(15) . . ? 
C18 Ru1 Ru4 103.47(15) . . ? 
C19 Ru1 Ru4 128.87(14) . . ? 
C16 Ru1 Ru4 122.27(13) . . ? 
C15 Ru1 Ru4 156.33(14) . . ? 
C20 Ru1 Ru4 164.17(13) . . ? 
Ru5 Ru1 Ru4 60.816(17) . . ? 
Ru3 Ru1 Ru4 60.634(15) . . ? 
Ru2 Ru1 Ru4 91.543(17) . . ? 
C1 Ru2 C2 83.1(2) . . ? 
C1 Ru2 C3 91.5(2) . . ? 
C2 Ru2 C3 93.6(2) . . ? 
C1 Ru2 C100 135.42(19) . . ? 
C2 Ru2 C100 140.6(2) . . ? 
C3 Ru2 C100 93.1(2) . . ? 
C1 Ru2 Ru3 128.79(19) . . ? 
C2 Ru2 Ru3 120.47(18) . . ? 
C3 Ru2 Ru3 46.52(16) . . ? 
C100 Ru2 Ru3 47.73(13) . . ? 
C1 Ru2 Ru1 94.62(15) . . ? 
C2 Ru2 Ru1 177.70(18) . . ? 
C3 Ru2 Ru1 86.01(14) . . ? 
C100 Ru2 Ru1 41.71(13) . . ? 
Ru3 Ru2 Ru1 60.727(14) . . ? 
C1 Ru2 Ru6 168.40(19) . . ? 
C2 Ru2 Ru6 94.71(18) . . ? 
C3 Ru2 Ru6 100.01(16) . . ? 
C100 Ru2 Ru6 45.88(13) . . ? 
Ru3 Ru2 Ru6 61.953(16) . . ? 
Ru1 Ru2 Ru6 87.589(16) . . ? 
C1 Ru2 Ru5 115.32(16) . . ? 
C2 Ru2 Ru5 124.50(19) . . ? 
C3 Ru2 Ru5 134.11(15) . . ? 
C100 Ru2 Ru5 41.46(13) . . ? 
Ru3 Ru2 Ru5 89.143(17) . . ? 
Ru1 Ru2 Ru5 56.904(14) . . ? 
Ru6 Ru2 Ru5 56.833(15) . . ? 
C5 Ru3 C4 87.4(2) . . ? 
C5 Ru3 C3 99.0(2) . . ? 
C4 Ru3 C3 90.5(2) . . ? 
C5 Ru3 C100 129.8(2) . . ? 
C4 Ru3 C100 141.4(2) . . ? 
C3 Ru3 C100 92.6(2) . . ? 
C5 Ru3 Ru2 132.33(17) . . ? 
C4 Ru3 Ru2 118.24(17) . . ? 
C3 Ru3 Ru2 46.30(16) . . ? 
C100 Ru3 Ru2 47.44(13) . . ? 
C5 Ru3 Ru1 90.43(16) . . ? 
C4 Ru3 Ru1 175.5(2) . . ? 
C3 Ru3 Ru1 85.91(14) . . ? 
C100 Ru3 Ru1 41.75(13) . . ? 
Ru2 Ru3 Ru1 60.788(14) . . ? 
C5 Ru3 Ru4 105.25(16) . . ? 
C4 Ru3 Ru4 124.67(19) . . ? 
C3 Ru3 Ru4 137.31(16) . . ? 
C100 Ru3 Ru4 45.04(13) . . ? 
Ru2 Ru3 Ru4 92.373(18) . . ? 
Ru1 Ru3 Ru4 59.730(15) . . ? 
C5 Ru3 Ru6 161.71(17) . . ? 
C4 Ru3 Ru6 96.2(2) . . ? 
C3 Ru3 Ru6 98.85(16) . . ? 
C100 Ru3 Ru6 45.29(13) . . ? 
Ru2 Ru3 Ru6 60.855(16) . . ? 
Ru1 Ru3 Ru6 87.037(17) . . ? 
Ru4 Ru3 Ru6 58.124(15) . . ? 
C9 Ru4 C11 91.1(3) . . ? 
C9 Ru4 C10 96.9(2) . . ? 
C11 Ru4 C10 94.9(3) . . ? 
C9 Ru4 C100 123.8(2) . . ? 
C11 Ru4 C100 131.8(2) . . ? 
C10 Ru4 C100 110.5(2) . . ? 
C9 Ru4 Ru6 163.34(18) . . ? 
C11 Ru4 Ru6 89.47(17) . . ? 
C10 Ru4 Ru6 99.63(15) . . ? 
C100 Ru4 Ru6 47.37(13) . . ? 
C9 Ru4 Ru1 83.52(18) . . ? 
C11 Ru4 Ru1 155.15(18) . . ? 
C10 Ru4 Ru1 109.85(18) . . ? 
C100 Ru4 Ru1 41.67(13) . . ? 
Ru6 Ru4 Ru1 89.032(17) . . ? 
C9 Ru4 Ru5 104.05(18) . . ? 
C11 Ru4 Ru5 99.62(19) . . ? 
C10 Ru4 Ru5 154.16(16) . . ? 
C100 Ru4 Ru5 44.70(13) . . ? 
Ru6 Ru4 Ru5 59.490(15) . . ? 
Ru1 Ru4 Ru5 58.762(16) . . ? 
C9 Ru4 Ru3 125.1(2) . . ? 
C11 Ru4 Ru3 138.78(16) . . ? 
C10 Ru4 Ru3 64.73(17) . . ? 
C100 Ru4 Ru3 45.96(13) . . ? 
Ru6 Ru4 Ru3 61.756(15) . . ? 
Ru1 Ru4 Ru3 59.636(15) . . ? 
Ru5 Ru4 Ru3 90.612(18) . . ? 
C13 Ru5 C12 91.7(3) . . ? 
C13 Ru5 C14 99.2(2) . . ? 
C12 Ru5 C14 95.0(3) . . ? 
C13 Ru5 C100 121.9(2) . . ? 
C12 Ru5 C100 131.2(3) . . ? 
C14 Ru5 C100 111.1(2) . . ? 
C13 Ru5 Ru1 84.08(18) . . ? 
C12 Ru5 Ru1 162.7(2) . . ? 
C14 Ru5 Ru1 102.3(2) . . ? 
C100 Ru5 Ru1 42.59(13) . . ? 
C13 Ru5 Ru6 152.90(18) . . ? 
C12 Ru5 Ru6 86.2(2) . . ? 
C14 Ru5 Ru6 107.91(16) . . ? 
C100 Ru5 Ru6 47.40(13) . . ? 
Ru1 Ru5 Ru6 89.989(18) . . ? 
C13 Ru5 Ru4 95.05(18) . . ? 
C12 Ru5 Ru4 103.4(2) . . ? 
C14 Ru5 Ru4 156.4(2) . . ? 
C100 Ru5 Ru4 45.34(14) . . ? 
Ru1 Ru5 Ru4 60.422(16) . . ? 
Ru6 Ru5 Ru4 59.470(15) . . ? 
C13 Ru5 Ru2 134.71(18) . . ? 
C12 Ru5 Ru2 131.57(19) . . ? 
C14 Ru5 Ru2 68.74(19) . . ? 
C100 Ru5 Ru2 42.61(13) . . ? 
Ru1 Ru5 Ru2 58.410(15) . . ? 
Ru6 Ru5 Ru2 59.224(15) . . ? 
Ru4 Ru5 Ru2 87.846(17) . . ? 
C6 Ru6 C8 88.3(3) . . ? 
C6 Ru6 C7 95.1(3) . . ? 
C8 Ru6 C7 90.1(3) . . ? 
C6 Ru6 C100 123.8(2) . . ? 
C8 Ru6 C100 128.0(2) . . ? 
C7 Ru6 C100 121.6(2) . . ? 
C6 Ru6 Ru4 103.77(19) . . ? 
C8 Ru6 Ru4 90.46(18) . . ? 
C7 Ru6 Ru4 161.08(18) . . ? 
C100 Ru6 Ru4 46.15(13) . . ? 
C6 Ru6 Ru5 164.75(19) . . ? 
C8 Ru6 Ru5 92.9(2) . . ? 
C7 Ru6 Ru5 100.05(18) . . ? 
C100 Ru6 Ru5 45.52(13) . . ? 
Ru4 Ru6 Ru5 61.040(15) . . ? 
C6 Ru6 Ru2 118.3(2) . . ? 
C8 Ru6 Ru2 152.0(2) . . ? 
C7 Ru6 Ru2 79.49(18) . . ? 
C100 Ru6 Ru2 45.36(13) . . ? 
Ru4 Ru6 Ru2 91.345(17) . . ? 
Ru5 Ru6 Ru2 63.943(16) . . ? 
C6 Ru6 Ru3 79.6(2) . . ? 
C8 Ru6 Ru3 143.7(2) . . ? 
C7 Ru6 Ru3 124.79(18) . . ? 
C100 Ru6 Ru3 45.04(13) . . ? 
Ru4 Ru6 Ru3 60.120(15) . . ? 
Ru5 Ru6 Ru3 90.551(18) . . ? 
Ru2 Ru6 Ru3 57.192(15) . . ? 
F3 B1 F4 110.6(5) . . ? 
F3 B1 F2 111.8(6) . . ? 
F4 B1 F2 109.7(6) . . ? 
F3 B1 F1 109.4(6) . . ? 
F4 B1 F1 109.5(6) . . ? 
F2 B1 F1 105.7(4) . . ? 
C15 O15 C21 118.0(4) . . ? 
C22 O16 C23 111.2(4) . . ? 
C25 O17 C24 111.6(5) . . ? 
C26 O18 C27 113.6(4) . . ? 
C29 O19 C28 109.8(4) . . ? 
C20 O20 C30 117.1(4) . . ? 
O1 C1 Ru2 172.3(4) . . ? 
O2 C2 Ru2 174.6(5) . . ? 
O3 C3 Ru2 136.2(5) . . ? 
O3 C3 Ru3 136.6(5) . . ? 
Ru2 C3 Ru3 87.2(2) . . ? 
O4 C4 Ru3 176.4(6) . . ? 
O5 C5 Ru3 178.1(5) . . ? 
O6 C6 Ru6 175.1(7) . . ? 
O7 C7 Ru6 175.0(5) . . ? 
O8 C8 Ru6 174.5(6) . . ? 
O9 C9 Ru4 178.1(5) . . ? 
O10 C10 Ru4 166.5(5) . . ? 
O11 C11 Ru4 177.9(5) . . ? 
O12 C12 Ru5 175.8(6) . . ? 
O13 C13 Ru5 176.8(5) . . ? 
O14 C14 Ru5 171.2(6) . . ? 
O15 C15 C16 124.8(5) . . ? 
O15 C15 C20 115.0(5) . . ? 
C16 C15 C20 120.1(5) . . ? 
O15 C15 Ru1 131.9(3) . . ? 
C16 C15 Ru1 70.1(3) . . ? 
C20 C15 Ru1 72.8(3) . . ? 
C15 C16 C17 119.2(5) . . ? 
C15 C16 Ru1 74.1(3) . . ? 
C17 C16 Ru1 69.1(3) . . ? 
C15 C16 H16 120.4 . . ? 
C17 C16 H16 120.4 . . ? 
Ru1 C16 H16 128.5 . . ? 
C18 C17 C16 120.8(5) . . ? 
C18 C17 Ru1 71.6(3) . . ? 
C16 C17 Ru1 73.9(3) . . ? 
C18 C17 H17 119.6 . . ? 
C16 C17 H17 119.6 . . ? 
Ru1 C17 H17 126.8 . . ? 
C17 C18 C19 120.3(5) . . ? 
C17 C18 Ru1 71.5(3) . . ? 
C19 C18 Ru1 73.8(3) . . ? 
C17 C18 H18 119.8 . . ? 
C19 C18 H18 119.8 . . ? 
Ru1 C18 H18 126.8 . . ? 
C18 C19 C20 120.3(5) . . ? 
C18 C19 Ru1 69.6(3) . . ? 
C20 C19 Ru1 75.1(3) . . ? 
C18 C19 H19 119.9 . . ? 
C20 C19 H19 119.9 . . ? 
Ru1 C19 H19 127.5 . . ? 
O20 C20 C19 124.8(5) . . ? 
O20 C20 C15 116.0(5) . . ? 
C19 C20 C15 119.2(5) . . ? 
O20 C20 Ru1 133.7(3) . . ? 
C19 C20 Ru1 69.2(3) . . ? 
C15 C20 Ru1 71.4(3) . . ? 
O15 C21 C22 108.3(4) . . ? 
O15 C21 H21A 110.0 . . ? 
C22 C21 H21A 110.0 . . ? 
O15 C21 H21B 110.0 . . ? 
C22 C21 H21B 110.0 . . ? 
H21A C21 H21B 108.4 . . ? 
O16 C22 C21 109.7(4) . . ? 
O16 C22 H22A 109.7 . . ? 
C21 C22 H22A 109.7 . . ? 
O16 C22 H22B 109.7 . . ? 
C21 C22 H22B 109.7 . . ? 
H22A C22 H22B 108.2 . . ? 
O16 C23 C24 108.7(4) . . ? 
O16 C23 H23A 110.0 . . ? 
C24 C23 H23A 110.0 . . ? 
O16 C23 H23B 110.0 . . ? 
C24 C23 H23B 110.0 . . ? 
H23A C23 H23B 108.3 . . ? 
O17 C24 C23 108.3(5) . . ? 
O17 C24 H24A 110.0 . . ? 
C23 C24 H24A 110.0 . . ? 
O17 C24 H24B 110.0 . . ? 
C23 C24 H24B 110.0 . . ? 
H24A C24 H24B 108.4 . . ? 
O17 C25 C26 109.9(5) . . ? 
O17 C25 H25A 109.7 . . ? 
C26 C25 H25A 109.7 . . ? 
O17 C25 H25B 109.7 . . ? 
C26 C25 H25B 109.7 . . ? 
H25A C25 H25B 108.2 . . ? 
O18 C26 C25 108.7(5) . . ? 
O18 C26 H26A 109.9 . . ? 
C25 C26 H26A 109.9 . . ? 
O18 C26 H26B 109.9 . . ? 
C25 C26 H26B 109.9 . . ? 
H26A C26 H26B 108.3 . . ? 
O18 C27 C28 112.0(5) . . ? 
O18 C27 H27A 109.2 . . ? 
C28 C27 H27A 109.2 . . ? 
O18 C27 H27B 109.2 . . ? 
C28 C27 H27B 109.2 . . ? 
H27A C27 H27B 107.9 . . ? 
O19 C28 C27 108.3(5) . . ? 
O19 C28 H28A 110.0 . . ? 
C27 C28 H28A 110.0 . . ? 
O19 C28 H28B 110.0 . . ? 
C27 C28 H28B 110.0 . . ? 
H28A C28 H28B 108.4 . . ? 
O19 C29 C30 109.3(4) . . ? 
O19 C29 H29A 109.8 . . ? 
C30 C29 H29A 109.8 . . ? 
O19 C29 H29B 109.8 . . ? 
C30 C29 H29B 109.8 . . ? 
H29A C29 H29B 108.3 . . ? 
O20 C30 C29 108.0(4) . . ? 
O20 C30 H30A 110.1 . . ? 
C29 C30 H30A 110.1 . . ? 
O20 C30 H30B 110.1 . . ? 
C29 C30 H30B 110.1 . . ? 
H30A C30 H30B 108.4 . . ? 
O21 C31 C32 121.6(6) . . ? 
O21 C31 C33 122.2(6) . . ? 
C32 C31 C33 116.2(6) . . ? 
C31 C32 H32A 109.5 . . ? 
C31 C32 H32B 109.5 . . ? 
H32A C32 H32B 109.5 . . ? 
C31 C32 H32C 109.5 . . ? 
H32A C32 H32C 109.5 . . ? 
H32B C32 H32C 109.5 . . ? 
C31 C33 H33A 109.5 . . ? 
C31 C33 H33B 109.5 . . ? 
H33A C33 H33B 109.5 . . ? 
C31 C33 H33C 109.5 . . ? 
H33A C33 H33C 109.5 . . ? 
H33B C33 H33C 109.5 . . ? 
Ru1 C100 Ru5 91.52(19) . . ? 
Ru1 C100 Ru4 92.84(18) . . ? 
Ru5 C100 Ru4 89.96(19) . . ? 
Ru1 C100 Ru2 92.1(2) . . ? 
Ru5 C100 Ru2 95.9(2) . . ? 
Ru4 C100 Ru2 172.2(3) . . ? 
Ru1 C100 Ru3 91.7(2) . . ? 
Ru5 C100 Ru3 176.7(3) . . ? 
Ru4 C100 Ru3 89.01(19) . . ? 
Ru2 C100 Ru3 84.83(17) . . ? 
Ru1 C100 Ru6 178.4(3) . . ? 
Ru5 C100 Ru6 87.09(19) . . ? 
Ru4 C100 Ru6 86.47(19) . . ? 
Ru2 C100 Ru6 88.76(17) . . ? 
Ru3 C100 Ru6 89.68(18) . . ? 
  
loop_ 
 _geom_torsion_atom_site_label_1 
 _geom_torsion_atom_site_label_2 
 _geom_torsion_atom_site_label_3 
 _geom_torsion_atom_site_label_4 
 _geom_torsion 
 _geom_torsion_site_symmetry_1 
 _geom_torsion_site_symmetry_2 
 _geom_torsion_site_symmetry_3 
 _geom_torsion_site_symmetry_4 
 _geom_torsion_publ_flag 
C100 Ru1 Ru2 C1 169.5(3) . . . . ? 
C17 Ru1 Ru2 C1 -63.2(4) . . . . ? 
C18 Ru1 Ru2 C1 43.6(4) . . . . ? 
C19 Ru1 Ru2 C1 36.0(3) . . . . ? 
C16 Ru1 Ru2 C1 -56.7(2) . . . . ? 
C15 Ru1 Ru2 C1 -28.5(2) . . . . ? 
C20 Ru1 Ru2 C1 7.5(2) . . . . ? 
Ru5 Ru1 Ru2 C1 117.36(19) . . . . ? 
Ru3 Ru1 Ru2 C1 -132.47(19) . . . . ? 
Ru4 Ru1 Ru2 C1 173.83(19) . . . . ? 
C100 Ru1 Ru2 C2 -180(100) . . . . ? 
C17 Ru1 Ru2 C2 -53(5) . . . . ? 
C18 Ru1 Ru2 C2 54(5) . . . . ? 
C19 Ru1 Ru2 C2 47(5) . . . . ? 
C16 Ru1 Ru2 C2 -46(5) . . . . ? 
C15 Ru1 Ru2 C2 -18(5) . . . . ? 
C20 Ru1 Ru2 C2 18(5) . . . . ? 
Ru5 Ru1 Ru2 C2 128(5) . . . . ? 
Ru3 Ru1 Ru2 C2 -122(5) . . . . ? 
Ru4 Ru1 Ru2 C2 -175(5) . . . . ? 
C100 Ru1 Ru2 C3 -99.3(3) . . . . ? 
C17 Ru1 Ru2 C3 28.0(4) . . . . ? 
C18 Ru1 Ru2 C3 134.8(4) . . . . ? 
C19 Ru1 Ru2 C3 127.1(2) . . . . ? 
C16 Ru1 Ru2 C3 34.4(2) . . . . ? 
C15 Ru1 Ru2 C3 62.7(2) . . . . ? 
C20 Ru1 Ru2 C3 98.7(2) . . . . ? 
Ru5 Ru1 Ru2 C3 -151.45(16) . . . . ? 
Ru3 Ru1 Ru2 C3 -41.28(16) . . . . ? 
Ru4 Ru1 Ru2 C3 -94.98(16) . . . . ? 
C17 Ru1 Ru2 C100 127.2(4) . . . . ? 
C18 Ru1 Ru2 C100 -125.9(4) . . . . ? 
C19 Ru1 Ru2 C100 -133.6(3) . . . . ? 
C16 Ru1 Ru2 C100 133.7(3) . . . . ? 
C15 Ru1 Ru2 C100 161.9(2) . . . . ? 
C20 Ru1 Ru2 C100 -162.0(2) . . . . ? 
Ru5 Ru1 Ru2 C100 -52.2(2) . . . . ? 
Ru3 Ru1 Ru2 C100 58.0(2) . . . . ? 
Ru4 Ru1 Ru2 C100 4.3(2) . . . . ? 
C100 Ru1 Ru2 Ru3 -58.0(2) . . . . ? 
C17 Ru1 Ru2 Ru3 69.2(4) . . . . ? 
C18 Ru1 Ru2 Ru3 176.1(4) . . . . ? 
C19 Ru1 Ru2 Ru3 168.42(17) . . . . ? 
C16 Ru1 Ru2 Ru3 75.72(16) . . . . ? 
C15 Ru1 Ru2 Ru3 103.95(14) . . . . ? 
C20 Ru1 Ru2 Ru3 140.00(14) . . . . ? 
Ru5 Ru1 Ru2 Ru3 -110.17(2) . . . . ? 
Ru4 Ru1 Ru2 Ru3 -53.704(17) . . . . ? 
C100 Ru1 Ru2 Ru6 0.9(2) . . . . ? 
C17 Ru1 Ru2 Ru6 128.2(4) . . . . ? 
C18 Ru1 Ru2 Ru6 -125.0(4) . . . . ? 
C19 Ru1 Ru2 Ru6 -132.64(16) . . . . ? 
C16 Ru1 Ru2 Ru6 134.67(16) . . . . ? 
C15 Ru1 Ru2 Ru6 162.89(14) . . . . ? 
C20 Ru1 Ru2 Ru6 -161.06(14) . . . . ? 
Ru5 Ru1 Ru2 Ru6 -51.233(16) . . . . ? 
Ru3 Ru1 Ru2 Ru6 58.942(17) . . . . ? 
Ru4 Ru1 Ru2 Ru6 5.238(17) . . . . ? 
C100 Ru1 Ru2 Ru5 52.2(2) . . . . ? 
C17 Ru1 Ru2 Ru5 179.4(4) . . . . ? 
C18 Ru1 Ru2 Ru5 -73.8(4) . . . . ? 
C19 Ru1 Ru2 Ru5 -81.41(17) . . . . ? 
C16 Ru1 Ru2 Ru5 -174.10(16) . . . . ? 
C15 Ru1 Ru2 Ru5 -145.88(14) . . . . ? 
C20 Ru1 Ru2 Ru5 -109.83(14) . . . . ? 
Ru3 Ru1 Ru2 Ru5 110.17(2) . . . . ? 
Ru4 Ru1 Ru2 Ru5 56.471(17) . . . . ? 
C1 Ru2 Ru3 C5 10.5(3) . . . . ? 
C2 Ru2 Ru3 C5 117.6(3) . . . . ? 
C3 Ru2 Ru3 C5 54.8(3) . . . . ? 
C100 Ru2 Ru3 C5 -109.8(3) . . . . ? 
Ru1 Ru2 Ru3 C5 -60.1(2) . . . . ? 
Ru6 Ru2 Ru3 C5 -164.3(2) . . . . ? 
Ru5 Ru2 Ru3 C5 -112.0(2) . . . . ? 
C1 Ru2 Ru3 C4 -104.4(3) . . . . ? 
C2 Ru2 Ru3 C4 2.7(3) . . . . ? 
C3 Ru2 Ru3 C4 -60.1(3) . . . . ? 
C100 Ru2 Ru3 C4 135.3(3) . . . . ? 
Ru1 Ru2 Ru3 C4 -175.0(2) . . . . ? 
Ru6 Ru2 Ru3 C4 80.9(2) . . . . ? 
Ru5 Ru2 Ru3 C4 133.1(2) . . . . ? 
C1 Ru2 Ru3 C3 -44.3(3) . . . . ? 
C2 Ru2 Ru3 C3 62.8(3) . . . . ? 
C100 Ru2 Ru3 C3 -164.6(3) . . . . ? 
Ru1 Ru2 Ru3 C3 -114.92(19) . . . . ? 
Ru6 Ru2 Ru3 C3 140.95(19) . . . . ? 
Ru5 Ru2 Ru3 C3 -166.78(19) . . . . ? 
C1 Ru2 Ru3 C100 120.3(3) . . . . ? 
C2 Ru2 Ru3 C100 -132.6(3) . . . . ? 
C3 Ru2 Ru3 C100 164.6(3) . . . . ? 
Ru1 Ru2 Ru3 C100 49.69(18) . . . . ? 
Ru6 Ru2 Ru3 C100 -54.43(18) . . . . ? 
Ru5 Ru2 Ru3 C100 -2.17(18) . . . . ? 
C1 Ru2 Ru3 Ru1 70.61(19) . . . . ? 
C2 Ru2 Ru3 Ru1 177.7(2) . . . . ? 
C3 Ru2 Ru3 Ru1 114.92(19) . . . . ? 
C100 Ru2 Ru3 Ru1 -49.69(18) . . . . ? 
Ru6 Ru2 Ru3 Ru1 -104.122(17) . . . . ? 
Ru5 Ru2 Ru3 Ru1 -51.855(15) . . . . ? 
C1 Ru2 Ru3 Ru4 123.65(19) . . . . ? 
C2 Ru2 Ru3 Ru4 -129.2(2) . . . . ? 
C3 Ru2 Ru3 Ru4 167.97(19) . . . . ? 
C100 Ru2 Ru3 Ru4 3.36(18) . . . . ? 
Ru1 Ru2 Ru3 Ru4 53.045(16) . . . . ? 
Ru6 Ru2 Ru3 Ru4 -51.078(15) . . . . ? 
Ru5 Ru2 Ru3 Ru4 1.190(17) . . . . ? 
C1 Ru2 Ru3 Ru6 174.73(19) . . . . ? 
C2 Ru2 Ru3 Ru6 -78.1(2) . . . . ? 
C3 Ru2 Ru3 Ru6 -140.95(19) . . . . ? 
C100 Ru2 Ru3 Ru6 54.43(18) . . . . ? 
Ru1 Ru2 Ru3 Ru6 104.122(17) . . . . ? 
Ru5 Ru2 Ru3 Ru6 52.268(15) . . . . ? 
C100 Ru1 Ru3 C5 -162.4(3) . . . . ? 
C17 Ru1 Ru3 C5 -17.0(2) . . . . ? 
C18 Ru1 Ru3 C5 -37.2(3) . . . . ? 
C19 Ru1 Ru3 C5 54.9(8) . . . . ? 
C16 Ru1 Ru3 C5 17.1(2) . . . . ? 
C15 Ru1 Ru3 C5 51.9(2) . . . . ? 
C20 Ru1 Ru3 C5 75.5(2) . . . . ? 
Ru5 Ru1 Ru3 C5 -161.75(17) . . . . ? 
Ru2 Ru1 Ru3 C5 140.12(17) . . . . ? 
Ru4 Ru1 Ru3 C5 -107.47(17) . . . . ? 
C100 Ru1 Ru3 C4 136(2) . . . . ? 
C17 Ru1 Ru3 C4 -78(2) . . . . ? 
C18 Ru1 Ru3 C4 -99(2) . . . . ? 
C19 Ru1 Ru3 C4 -7(2) . . . . ? 
C16 Ru1 Ru3 C4 -44(2) . . . . ? 
C15 Ru1 Ru3 C4 -9(2) . . . . ? 
C20 Ru1 Ru3 C4 14(2) . . . . ? 
Ru5 Ru1 Ru3 C4 137(2) . . . . ? 
Ru2 Ru1 Ru3 C4 79(2) . . . . ? 
Ru4 Ru1 Ru3 C4 -169(2) . . . . ? 
C100 Ru1 Ru3 C3 98.6(3) . . . . ? 
C17 Ru1 Ru3 C3 -116.0(2) . . . . ? 
C18 Ru1 Ru3 C3 -136.2(3) . . . . ? 
C19 Ru1 Ru3 C3 -44.1(8) . . . . ? 
C16 Ru1 Ru3 C3 -81.9(2) . . . . ? 
C15 Ru1 Ru3 C3 -47.1(2) . . . . ? 
C20 Ru1 Ru3 C3 -23.6(2) . . . . ? 
Ru5 Ru1 Ru3 C3 99.23(16) . . . . ? 
Ru2 Ru1 Ru3 C3 41.09(16) . . . . ? 
Ru4 Ru1 Ru3 C3 153.51(16) . . . . ? 
C17 Ru1 Ru3 C100 145.4(3) . . . . ? 
C18 Ru1 Ru3 C100 125.2(3) . . . . ? 
C19 Ru1 Ru3 C100 -142.7(8) . . . . ? 
C16 Ru1 Ru3 C100 179.5(2) . . . . ? 
C15 Ru1 Ru3 C100 -145.7(2) . . . . ? 
C20 Ru1 Ru3 C100 -122.2(3) . . . . ? 
Ru5 Ru1 Ru3 C100 0.6(2) . . . . ? 
Ru2 Ru1 Ru3 C100 -57.5(2) . . . . ? 
Ru4 Ru1 Ru3 C100 54.9(2) . . . . ? 
C100 Ru1 Ru3 Ru2 57.5(2) . . . . ? 
C17 Ru1 Ru3 Ru2 -157.08(16) . . . . ? 
C18 Ru1 Ru3 Ru2 -177.3(3) . . . . ? 
C19 Ru1 Ru3 Ru2 -85.2(8) . . . . ? 
C16 Ru1 Ru3 Ru2 -122.99(13) . . . . ? 
C15 Ru1 Ru3 Ru2 -88.18(13) . . . . ? 
C20 Ru1 Ru3 Ru2 -64.65(18) . . . . ? 
Ru5 Ru1 Ru3 Ru2 58.132(17) . . . . ? 
Ru4 Ru1 Ru3 Ru2 112.413(19) . . . . ? 
C100 Ru1 Ru3 Ru4 -54.91(19) . . . . ? 
C17 Ru1 Ru3 Ru4 90.51(16) . . . . ? 
C18 Ru1 Ru3 Ru4 70.3(3) . . . . ? 
C19 Ru1 Ru3 Ru4 162.4(8) . . . . ? 
C16 Ru1 Ru3 Ru4 124.60(13) . . . . ? 
C15 Ru1 Ru3 Ru4 159.41(13) . . . . ? 
C20 Ru1 Ru3 Ru4 -177.07(18) . . . . ? 
Ru5 Ru1 Ru3 Ru4 -54.280(17) . . . . ? 
Ru2 Ru1 Ru3 Ru4 -112.413(19) . . . . ? 
C100 Ru1 Ru3 Ru6 -0.51(19) . . . . ? 
C17 Ru1 Ru3 Ru6 144.91(16) . . . . ? 
C18 Ru1 Ru3 Ru6 124.7(3) . . . . ? 
C19 Ru1 Ru3 Ru6 -143.2(8) . . . . ? 
C16 Ru1 Ru3 Ru6 179.00(13) . . . . ? 
C15 Ru1 Ru3 Ru6 -146.19(13) . . . . ? 
C20 Ru1 Ru3 Ru6 -122.66(18) . . . . ? 
Ru5 Ru1 Ru3 Ru6 0.124(17) . . . . ? 
Ru2 Ru1 Ru3 Ru6 -58.008(16) . . . . ? 
Ru4 Ru1 Ru3 Ru6 54.404(16) . . . . ? 
C100 Ru1 Ru4 C9 -166.1(3) . . . . ? 
C17 Ru1 Ru4 C9 28.9(3) . . . . ? 
C18 Ru1 Ru4 C9 -8.7(3) . . . . ? 
C19 Ru1 Ru4 C9 -38.6(3) . . . . ? 
C16 Ru1 Ru4 C9 61.5(2) . . . . ? 
C15 Ru1 Ru4 C9 79.8(3) . . . . ? 
C20 Ru1 Ru4 C9 -50.1(5) . . . . ? 
Ru5 Ru1 Ru4 C9 -110.8(2) . . . . ? 
Ru3 Ru1 Ru4 C9 137.5(2) . . . . ? 
Ru2 Ru1 Ru4 C9 -170.45(19) . . . . ? 
C100 Ru1 Ru4 C11 -87.7(5) . . . . ? 
C17 Ru1 Ru4 C11 107.3(4) . . . . ? 
C18 Ru1 Ru4 C11 69.7(4) . . . . ? 
C19 Ru1 Ru4 C11 39.8(4) . . . . ? 
C16 Ru1 Ru4 C11 140.0(4) . . . . ? 
C15 Ru1 Ru4 C11 158.2(5) . . . . ? 
C20 Ru1 Ru4 C11 28.3(6) . . . . ? 
Ru5 Ru1 Ru4 C11 -32.3(4) . . . . ? 
Ru3 Ru1 Ru4 C11 -144.1(4) . . . . ? 
Ru2 Ru1 Ru4 C11 -92.0(4) . . . . ? 
C100 Ru1 Ru4 C10 98.9(3) . . . . ? 
C17 Ru1 Ru4 C10 -66.1(2) . . . . ? 
C18 Ru1 Ru4 C10 -103.7(2) . . . . ? 
C19 Ru1 Ru4 C10 -133.6(2) . . . . ? 
C16 Ru1 Ru4 C10 -33.5(2) . . . . ? 
C15 Ru1 Ru4 C10 -15.2(3) . . . . ? 
C20 Ru1 Ru4 C10 -145.1(5) . . . . ? 
Ru5 Ru1 Ru4 C10 154.18(16) . . . . ? 
Ru3 Ru1 Ru4 C10 42.48(16) . . . . ? 
Ru2 Ru1 Ru4 C10 94.51(16) . . . . ? 
C17 Ru1 Ru4 C100 -165.0(3) . . . . ? 
C18 Ru1 Ru4 C100 157.4(3) . . . . ? 
C19 Ru1 Ru4 C100 127.5(3) . . . . ? 
C16 Ru1 Ru4 C100 -132.4(3) . . . . ? 
C15 Ru1 Ru4 C100 -114.1(3) . . . . ? 
C20 Ru1 Ru4 C100 116.0(5) . . . . ? 
Ru5 Ru1 Ru4 C100 55.3(2) . . . . ? 
Ru3 Ru1 Ru4 C100 -56.4(2) . . . . ? 
Ru2 Ru1 Ru4 C100 -4.3(2) . . . . ? 
C100 Ru1 Ru4 Ru6 -1.0(2) . . . . ? 
C17 Ru1 Ru4 Ru6 -166.02(16) . . . . ? 
C18 Ru1 Ru4 Ru6 156.37(16) . . . . ? 
C19 Ru1 Ru4 Ru6 126.48(17) . . . . ? 
C16 Ru1 Ru4 Ru6 -133.38(15) . . . . ? 
C15 Ru1 Ru4 Ru6 -115.1(3) . . . . ? 
C20 Ru1 Ru4 Ru6 115.0(4) . . . . ? 
Ru5 Ru1 Ru4 Ru6 54.296(16) . . . . ? 
Ru3 Ru1 Ru4 Ru6 -57.409(16) . . . . ? 
Ru2 Ru1 Ru4 Ru6 -5.374(18) . . . . ? 
C100 Ru1 Ru4 Ru5 -55.3(2) . . . . ? 
C17 Ru1 Ru4 Ru5 139.68(16) . . . . ? 
C18 Ru1 Ru4 Ru5 102.08(16) . . . . ? 
C19 Ru1 Ru4 Ru5 72.18(17) . . . . ? 
C16 Ru1 Ru4 Ru5 172.32(15) . . . . ? 
C15 Ru1 Ru4 Ru5 -169.4(3) . . . . ? 
C20 Ru1 Ru4 Ru5 60.7(4) . . . . ? 
Ru3 Ru1 Ru4 Ru5 -111.705(18) . . . . ? 
Ru2 Ru1 Ru4 Ru5 -59.670(16) . . . . ? 
C100 Ru1 Ru4 Ru3 56.4(2) . . . . ? 
C17 Ru1 Ru4 Ru3 -108.62(16) . . . . ? 
C18 Ru1 Ru4 Ru3 -146.22(16) . . . . ? 
C19 Ru1 Ru4 Ru3 -176.11(18) . . . . ? 
C16 Ru1 Ru4 Ru3 -75.97(15) . . . . ? 
C15 Ru1 Ru4 Ru3 -57.7(3) . . . . ? 
C20 Ru1 Ru4 Ru3 172.4(4) . . . . ? 
Ru5 Ru1 Ru4 Ru3 111.705(18) . . . . ? 
Ru2 Ru1 Ru4 Ru3 52.035(16) . . . . ? 
C5 Ru3 Ru4 C9 26.2(3) . . . . ? 
C4 Ru3 Ru4 C9 123.8(3) . . . . ? 
C3 Ru3 Ru4 C9 -96.1(3) . . . . ? 
C100 Ru3 Ru4 C9 -105.5(3) . . . . ? 
Ru2 Ru3 Ru4 C9 -109.0(2) . . . . ? 
Ru1 Ru3 Ru4 C9 -55.1(2) . . . . ? 
Ru6 Ru3 Ru4 C9 -162.1(2) . . . . ? 
C5 Ru3 Ru4 C11 -120.6(3) . . . . ? 
C4 Ru3 Ru4 C11 -23.0(4) . . . . ? 
C3 Ru3 Ru4 C11 117.0(4) . . . . ? 
C100 Ru3 Ru4 C11 107.6(3) . . . . ? 
Ru2 Ru3 Ru4 C11 104.2(3) . . . . ? 
Ru1 Ru3 Ru4 C11 158.0(3) . . . . ? 
Ru6 Ru3 Ru4 C11 51.0(3) . . . . ? 
C5 Ru3 Ru4 C10 -54.0(2) . . . . ? 
C4 Ru3 Ru4 C10 43.6(3) . . . . ? 
C3 Ru3 Ru4 C10 -176.4(3) . . . . ? 
C100 Ru3 Ru4 C10 174.3(3) . . . . ? 
Ru2 Ru3 Ru4 C10 170.76(18) . . . . ? 
Ru1 Ru3 Ru4 C10 -135.38(18) . . . . ? 
Ru6 Ru3 Ru4 C10 117.62(18) . . . . ? 
C5 Ru3 Ru4 C100 131.7(3) . . . . ? 
C4 Ru3 Ru4 C100 -130.7(3) . . . . ? 
C3 Ru3 Ru4 C100 9.3(3) . . . . ? 
Ru2 Ru3 Ru4 C100 -3.49(18) . . . . ? 
Ru1 Ru3 Ru4 C100 50.37(18) . . . . ? 
Ru6 Ru3 Ru4 C100 -56.64(18) . . . . ? 
C5 Ru3 Ru4 Ru6 -171.63(18) . . . . ? 
C4 Ru3 Ru4 Ru6 -74.0(2) . . . . ? 
C3 Ru3 Ru4 Ru6 66.0(2) . . . . ? 
C100 Ru3 Ru4 Ru6 56.64(18) . . . . ? 
Ru2 Ru3 Ru4 Ru6 53.146(17) . . . . ? 
Ru1 Ru3 Ru4 Ru6 107.007(18) . . . . ? 
C5 Ru3 Ru4 Ru1 81.36(17) . . . . ? 
C4 Ru3 Ru4 Ru1 178.9(2) . . . . ? 
C3 Ru3 Ru4 Ru1 -41.0(2) . . . . ? 
C100 Ru3 Ru4 Ru1 -50.37(18) . . . . ? 
Ru2 Ru3 Ru4 Ru1 -53.861(16) . . . . ? 
Ru6 Ru3 Ru4 Ru1 -107.007(18) . . . . ? 
C5 Ru3 Ru4 Ru5 133.96(17) . . . . ? 
C4 Ru3 Ru4 Ru5 -128.4(2) . . . . ? 
C3 Ru3 Ru4 Ru5 11.6(2) . . . . ? 
C100 Ru3 Ru4 Ru5 2.24(18) . . . . ? 
Ru2 Ru3 Ru4 Ru5 -1.257(18) . . . . ? 
Ru1 Ru3 Ru4 Ru5 52.603(16) . . . . ? 
Ru6 Ru3 Ru4 Ru5 -54.404(16) . . . . ? 
C100 Ru1 Ru5 C13 154.0(3) . . . . ? 
C17 Ru1 Ru5 C13 26.9(3) . . . . ? 
C18 Ru1 Ru5 C13 3.0(2) . . . . ? 
C19 Ru1 Ru5 C13 -32.6(2) . . . . ? 
C16 Ru1 Ru5 C13 -17.8(10) . . . . ? 
C15 Ru1 Ru5 C13 -87.7(3) . . . . ? 
C20 Ru1 Ru5 C13 -66.0(2) . . . . ? 
Ru3 Ru1 Ru5 C13 153.38(18) . . . . ? 
Ru2 Ru1 Ru5 C13 -153.40(18) . . . . ? 
Ru4 Ru1 Ru5 C13 99.24(18) . . . . ? 
C100 Ru1 Ru5 C12 77.5(7) . . . . ? 
C17 Ru1 Ru5 C12 -49.6(7) . . . . ? 
C18 Ru1 Ru5 C12 -73.5(7) . . . . ? 
C19 Ru1 Ru5 C12 -109.1(6) . . . . ? 
C16 Ru1 Ru5 C12 -94.3(12) . . . . ? 
C15 Ru1 Ru5 C12 -164.2(7) . . . . ? 
C20 Ru1 Ru5 C12 -142.5(6) . . . . ? 
Ru3 Ru1 Ru5 C12 76.9(6) . . . . ? 
Ru2 Ru1 Ru5 C12 130.1(6) . . . . ? 
Ru4 Ru1 Ru5 C12 22.7(6) . . . . ? 
C100 Ru1 Ru5 C14 -107.8(3) . . . . ? 
C17 Ru1 Ru5 C14 125.1(3) . . . . ? 
C18 Ru1 Ru5 C14 101.1(2) . . . . ? 
C19 Ru1 Ru5 C14 65.5(2) . . . . ? 
C16 Ru1 Ru5 C14 80.4(10) . . . . ? 
C15 Ru1 Ru5 C14 10.5(3) . . . . ? 
C20 Ru1 Ru5 C14 32.1(2) . . . . ? 
Ru3 Ru1 Ru5 C14 -108.47(17) . . . . ? 
Ru2 Ru1 Ru5 C14 -55.25(17) . . . . ? 
Ru4 Ru1 Ru5 C14 -162.61(17) . . . . ? 
C17 Ru1 Ru5 C100 -127.1(3) . . . . ? 
C18 Ru1 Ru5 C100 -151.0(3) . . . . ? 
C19 Ru1 Ru5 C100 173.4(2) . . . . ? 
C16 Ru1 Ru5 C100 -171.8(10) . . . . ? 
C15 Ru1 Ru5 C100 118.3(3) . . . . ? 
C20 Ru1 Ru5 C100 139.9(2) . . . . ? 
Ru3 Ru1 Ru5 C100 -0.6(2) . . . . ? 
Ru2 Ru1 Ru5 C100 52.6(2) . . . . ? 
Ru4 Ru1 Ru5 C100 -54.8(2) . . . . ? 
C100 Ru1 Ru5 Ru6 0.5(2) . . . . ? 
C17 Ru1 Ru5 Ru6 -126.6(2) . . . . ? 
C18 Ru1 Ru5 Ru6 -150.51(16) . . . . ? 
C19 Ru1 Ru5 Ru6 173.88(13) . . . . ? 
C16 Ru1 Ru5 Ru6 -171.3(10) . . . . ? 
C15 Ru1 Ru5 Ru6 118.80(19) . . . . ? 
C20 Ru1 Ru5 Ru6 140.46(12) . . . . ? 
Ru3 Ru1 Ru5 Ru6 -0.128(18) . . . . ? 
Ru2 Ru1 Ru5 Ru6 53.088(16) . . . . ? 
Ru4 Ru1 Ru5 Ru6 -54.268(15) . . . . ? 
C100 Ru1 Ru5 Ru4 54.8(2) . . . . ? 
C17 Ru1 Ru5 Ru4 -72.3(2) . . . . ? 
C18 Ru1 Ru5 Ru4 -96.25(16) . . . . ? 
C19 Ru1 Ru5 Ru4 -131.86(13) . . . . ? 
C16 Ru1 Ru5 Ru4 -117.0(10) . . . . ? 
C15 Ru1 Ru5 Ru4 173.07(19) . . . . ? 
C20 Ru1 Ru5 Ru4 -165.28(13) . . . . ? 
Ru3 Ru1 Ru5 Ru4 54.139(15) . . . . ? 
Ru2 Ru1 Ru5 Ru4 107.356(17) . . . . ? 
C100 Ru1 Ru5 Ru2 -52.6(2) . . . . ? 
C17 Ru1 Ru5 Ru2 -179.7(2) . . . . ? 
C18 Ru1 Ru5 Ru2 156.40(16) . . . . ? 
C19 Ru1 Ru5 Ru2 120.79(13) . . . . ? 
C16 Ru1 Ru5 Ru2 135.6(10) . . . . ? 
C15 Ru1 Ru5 Ru2 65.72(19) . . . . ? 
C20 Ru1 Ru5 Ru2 87.37(12) . . . . ? 
Ru3 Ru1 Ru5 Ru2 -53.217(15) . . . . ? 
Ru4 Ru1 Ru5 Ru2 -107.356(17) . . . . ? 
C9 Ru4 Ru5 C13 -7.0(3) . . . . ? 
C11 Ru4 Ru5 C13 86.6(2) . . . . ? 
C10 Ru4 Ru5 C13 -150.3(4) . . . . ? 
C100 Ru4 Ru5 C13 -131.3(3) . . . . ? 
Ru6 Ru4 Ru5 C13 170.20(18) . . . . ? 
Ru1 Ru4 Ru5 C13 -80.26(18) . . . . ? 
Ru3 Ru4 Ru5 C13 -133.55(18) . . . . ? 
C9 Ru4 Ru5 C12 -99.9(3) . . . . ? 
C11 Ru4 Ru5 C12 -6.4(2) . . . . ? 
C10 Ru4 Ru5 C12 116.8(4) . . . . ? 
C100 Ru4 Ru5 C12 135.8(3) . . . . ? 
Ru6 Ru4 Ru5 C12 77.26(19) . . . . ? 
Ru1 Ru4 Ru5 C12 -173.20(19) . . . . ? 
Ru3 Ru4 Ru5 C12 133.51(19) . . . . ? 
C9 Ru4 Ru5 C14 120.0(5) . . . . ? 
C11 Ru4 Ru5 C14 -146.4(5) . . . . ? 
C10 Ru4 Ru5 C14 -23.3(6) . . . . ? 
C100 Ru4 Ru5 C14 -4.3(5) . . . . ? 
Ru6 Ru4 Ru5 C14 -62.8(4) . . . . ? 
Ru1 Ru4 Ru5 C14 46.7(4) . . . . ? 
Ru3 Ru4 Ru5 C14 -6.5(4) . . . . ? 
C9 Ru4 Ru5 C100 124.3(3) . . . . ? 
C11 Ru4 Ru5 C100 -142.2(2) . . . . ? 
C10 Ru4 Ru5 C100 -19.0(4) . . . . ? 
Ru6 Ru4 Ru5 C100 -58.53(19) . . . . ? 
Ru1 Ru4 Ru5 C100 51.01(19) . . . . ? 
Ru3 Ru4 Ru5 C100 -2.29(19) . . . . ? 
C9 Ru4 Ru5 Ru1 73.3(2) . . . . ? 
C11 Ru4 Ru5 Ru1 166.82(16) . . . . ? 
C10 Ru4 Ru5 Ru1 -70.0(4) . . . . ? 
C100 Ru4 Ru5 Ru1 -51.01(18) . . . . ? 
Ru6 Ru4 Ru5 Ru1 -109.540(18) . . . . ? 
Ru3 Ru4 Ru5 Ru1 -53.293(15) . . . . ? 
C9 Ru4 Ru5 Ru6 -177.2(2) . . . . ? 
C11 Ru4 Ru5 Ru6 -83.64(16) . . . . ? 
C10 Ru4 Ru5 Ru6 39.5(4) . . . . ? 
C100 Ru4 Ru5 Ru6 58.53(18) . . . . ? 
Ru1 Ru4 Ru5 Ru6 109.540(18) . . . . ? 
Ru3 Ru4 Ru5 Ru6 56.247(17) . . . . ? 
C9 Ru4 Ru5 Ru2 127.7(2) . . . . ? 
C11 Ru4 Ru5 Ru2 -138.73(16) . . . . ? 
C10 Ru4 Ru5 Ru2 -15.6(4) . . . . ? 
C100 Ru4 Ru5 Ru2 3.44(18) . . . . ? 
Ru6 Ru4 Ru5 Ru2 -55.090(16) . . . . ? 
Ru1 Ru4 Ru5 Ru2 54.450(15) . . . . ? 
Ru3 Ru4 Ru5 Ru2 1.157(16) . . . . ? 
C1 Ru2 Ru5 C13 -39.5(3) . . . . ? 
C2 Ru2 Ru5 C13 -139.0(3) . . . . ? 
C3 Ru2 Ru5 C13 80.4(3) . . . . ? 
C100 Ru2 Ru5 C13 91.4(3) . . . . ? 
Ru3 Ru2 Ru5 C13 93.8(3) . . . . ? 
Ru1 Ru2 Ru5 C13 38.8(3) . . . . ? 
Ru6 Ru2 Ru5 C13 150.3(3) . . . . ? 
C1 Ru2 Ru5 C12 119.4(4) . . . . ? 
C2 Ru2 Ru5 C12 20.0(4) . . . . ? 
C3 Ru2 Ru5 C12 -120.6(4) . . . . ? 
C100 Ru2 Ru5 C12 -109.7(4) . . . . ? 
Ru3 Ru2 Ru5 C12 -107.3(3) . . . . ? 
Ru1 Ru2 Ru5 C12 -162.2(3) . . . . ? 
Ru6 Ru2 Ru5 C12 -50.8(3) . . . . ? 
C1 Ru2 Ru5 C14 42.2(3) . . . . ? 
C2 Ru2 Ru5 C14 -57.3(3) . . . . ? 
C3 Ru2 Ru5 C14 162.1(3) . . . . ? 
C100 Ru2 Ru5 C14 173.1(3) . . . . ? 
Ru3 Ru2 Ru5 C14 175.5(2) . . . . ? 
Ru1 Ru2 Ru5 C14 120.5(2) . . . . ? 
Ru6 Ru2 Ru5 C14 -128.0(2) . . . . ? 
C1 Ru2 Ru5 C100 -130.9(3) . . . . ? 
C2 Ru2 Ru5 C100 129.6(3) . . . . ? 
C3 Ru2 Ru5 C100 -10.9(3) . . . . ? 
Ru3 Ru2 Ru5 C100 2.4(2) . . . . ? 
Ru1 Ru2 Ru5 C100 -52.6(2) . . . . ? 
Ru6 Ru2 Ru5 C100 58.9(2) . . . . ? 
C1 Ru2 Ru5 Ru1 -78.3(2) . . . . ? 
C2 Ru2 Ru5 Ru1 -177.8(2) . . . . ? 
C3 Ru2 Ru5 Ru1 41.6(2) . . . . ? 
C100 Ru2 Ru5 Ru1 52.6(2) . . . . ? 
Ru3 Ru2 Ru5 Ru1 54.972(16) . . . . ? 
Ru6 Ru2 Ru5 Ru1 111.468(19) . . . . ? 
C1 Ru2 Ru5 Ru6 170.2(2) . . . . ? 
C2 Ru2 Ru5 Ru6 70.7(2) . . . . ? 
C3 Ru2 Ru5 Ru6 -69.9(2) . . . . ? 
C100 Ru2 Ru5 Ru6 -58.9(2) . . . . ? 
Ru3 Ru2 Ru5 Ru6 -56.496(16) . . . . ? 
Ru1 Ru2 Ru5 Ru6 -111.468(19) . . . . ? 
C1 Ru2 Ru5 Ru4 -134.5(2) . . . . ? 
C2 Ru2 Ru5 Ru4 126.0(2) . . . . ? 
C3 Ru2 Ru5 Ru4 -14.6(2) . . . . ? 
C100 Ru2 Ru5 Ru4 -3.6(2) . . . . ? 
Ru3 Ru2 Ru5 Ru4 -1.196(17) . . . . ? 
Ru1 Ru2 Ru5 Ru4 -56.168(16) . . . . ? 
Ru6 Ru2 Ru5 Ru4 55.300(16) . . . . ? 
C9 Ru4 Ru6 C6 -171.9(7) . . . . ? 
C11 Ru4 Ru6 C6 -79.9(3) . . . . ? 
C10 Ru4 Ru6 C6 14.9(3) . . . . ? 
C100 Ru4 Ru6 C6 123.9(3) . . . . ? 
Ru1 Ru4 Ru6 C6 124.9(2) . . . . ? 
Ru5 Ru4 Ru6 C6 178.6(2) . . . . ? 
Ru3 Ru4 Ru6 C6 69.2(2) . . . . ? 
C9 Ru4 Ru6 C8 -83.6(7) . . . . ? 
C11 Ru4 Ru6 C8 8.4(3) . . . . ? 
C10 Ru4 Ru6 C8 103.2(3) . . . . ? 
C100 Ru4 Ru6 C8 -147.7(3) . . . . ? 
Ru1 Ru4 Ru6 C8 -146.8(2) . . . . ? 
Ru5 Ru4 Ru6 C8 -93.1(2) . . . . ? 
Ru3 Ru4 Ru6 C8 157.6(2) . . . . ? 
C9 Ru4 Ru6 C7 8.1(9) . . . . ? 
C11 Ru4 Ru6 C7 100.1(6) . . . . ? 
C10 Ru4 Ru6 C7 -165.1(6) . . . . ? 
C100 Ru4 Ru6 C7 -56.0(6) . . . . ? 
Ru1 Ru4 Ru6 C7 -55.1(6) . . . . ? 
Ru5 Ru4 Ru6 C7 -1.4(6) . . . . ? 
Ru3 Ru4 Ru6 C7 -110.7(6) . . . . ? 
C9 Ru4 Ru6 C100 64.2(7) . . . . ? 
C11 Ru4 Ru6 C100 156.1(3) . . . . ? 
C10 Ru4 Ru6 C100 -109.0(3) . . . . ? 
Ru1 Ru4 Ru6 C100 0.93(18) . . . . ? 
Ru5 Ru4 Ru6 C100 54.63(18) . . . . ? 
Ru3 Ru4 Ru6 C100 -54.68(18) . . . . ? 
C9 Ru4 Ru6 Ru5 9.5(7) . . . . ? 
C11 Ru4 Ru6 Ru5 101.50(18) . . . . ? 
C10 Ru4 Ru6 Ru5 -163.67(18) . . . . ? 
C100 Ru4 Ru6 Ru5 -54.63(18) . . . . ? 
Ru1 Ru4 Ru6 Ru5 -53.697(17) . . . . ? 
Ru3 Ru4 Ru6 Ru5 -109.31(2) . . . . ? 
C9 Ru4 Ru6 Ru2 68.5(7) . . . . ? 
C11 Ru4 Ru6 Ru2 160.49(18) . . . . ? 
C10 Ru4 Ru6 Ru2 -104.68(18) . . . . ? 
C100 Ru4 Ru6 Ru2 4.36(18) . . . . ? 
Ru1 Ru4 Ru6 Ru2 5.294(17) . . . . ? 
Ru5 Ru4 Ru6 Ru2 58.991(17) . . . . ? 
Ru3 Ru4 Ru6 Ru2 -50.316(16) . . . . ? 
C9 Ru4 Ru6 Ru3 118.8(7) . . . . ? 
C11 Ru4 Ru6 Ru3 -149.19(18) . . . . ? 
C10 Ru4 Ru6 Ru3 -54.36(18) . . . . ? 
C100 Ru4 Ru6 Ru3 54.68(18) . . . . ? 
Ru1 Ru4 Ru6 Ru3 55.610(16) . . . . ? 
Ru5 Ru4 Ru6 Ru3 109.31(2) . . . . ? 
C13 Ru5 Ru6 C6 -27.2(10) . . . . ? 
C12 Ru5 Ru6 C6 -113.4(9) . . . . ? 
C14 Ru5 Ru6 C6 152.6(9) . . . . ? 
C100 Ru5 Ru6 C6 50.2(9) . . . . ? 
Ru1 Ru5 Ru6 C6 49.7(9) . . . . ? 
Ru4 Ru5 Ru6 C6 -5.4(9) . . . . ? 
Ru2 Ru5 Ru6 C6 102.1(9) . . . . ? 
C13 Ru5 Ru6 C8 67.1(5) . . . . ? 
C12 Ru5 Ru6 C8 -19.1(3) . . . . ? 
C14 Ru5 Ru6 C8 -113.1(3) . . . . ? 
C100 Ru5 Ru6 C8 144.4(3) . . . . ? 
Ru1 Ru5 Ru6 C8 144.0(2) . . . . ? 
Ru4 Ru5 Ru6 C8 88.9(2) . . . . ? 
Ru2 Ru5 Ru6 C8 -163.6(2) . . . . ? 
C13 Ru5 Ru6 C7 157.7(4) . . . . ? 
C12 Ru5 Ru6 C7 71.5(3) . . . . ? 
C14 Ru5 Ru6 C7 -22.5(3) . . . . ? 
C100 Ru5 Ru6 C7 -124.9(3) . . . . ? 
Ru1 Ru5 Ru6 C7 -125.41(18) . . . . ? 
Ru4 Ru5 Ru6 C7 179.54(18) . . . . ? 
Ru2 Ru5 Ru6 C7 -72.97(18) . . . . ? 
C13 Ru5 Ru6 C100 -77.4(4) . . . . ? 
C12 Ru5 Ru6 C100 -163.5(3) . . . . ? 
C14 Ru5 Ru6 C100 102.5(3) . . . . ? 
Ru1 Ru5 Ru6 C100 -0.47(18) . . . . ? 
Ru4 Ru5 Ru6 C100 -55.51(18) . . . . ? 
Ru2 Ru5 Ru6 C100 51.97(18) . . . . ? 
C13 Ru5 Ru6 Ru4 -21.8(4) . . . . ? 
C12 Ru5 Ru6 Ru4 -108.0(2) . . . . ? 
C14 Ru5 Ru6 Ru4 158.0(2) . . . . ? 
C100 Ru5 Ru6 Ru4 55.51(18) . . . . ? 
Ru1 Ru5 Ru6 Ru4 55.045(16) . . . . ? 
Ru2 Ru5 Ru6 Ru4 107.485(19) . . . . ? 
C13 Ru5 Ru6 Ru2 -129.3(4) . . . . ? 
C12 Ru5 Ru6 Ru2 144.5(2) . . . . ? 
C14 Ru5 Ru6 Ru2 50.5(2) . . . . ? 
C100 Ru5 Ru6 Ru2 -51.97(18) . . . . ? 
Ru1 Ru5 Ru6 Ru2 -52.440(16) . . . . ? 
Ru4 Ru5 Ru6 Ru2 -107.485(19) . . . . ? 
C13 Ru5 Ru6 Ru3 -76.8(4) . . . . ? 
C12 Ru5 Ru6 Ru3 -162.9(2) . . . . ? 
C14 Ru5 Ru6 Ru3 103.1(2) . . . . ? 
C100 Ru5 Ru6 Ru3 0.59(18) . . . . ? 
Ru1 Ru5 Ru6 Ru3 0.125(17) . . . . ? 
Ru4 Ru5 Ru6 Ru3 -54.920(16) . . . . ? 
Ru2 Ru5 Ru6 Ru3 52.565(16) . . . . ? 
C1 Ru2 Ru6 C6 147.0(7) . . . . ? 
C2 Ru2 Ru6 C6 68.3(3) . . . . ? 
C3 Ru2 Ru6 C6 -26.2(3) . . . . ? 
C100 Ru2 Ru6 C6 -110.9(3) . . . . ? 
Ru3 Ru2 Ru6 C6 -53.9(2) . . . . ? 
Ru1 Ru2 Ru6 C6 -111.7(2) . . . . ? 
Ru5 Ru2 Ru6 C6 -163.0(2) . . . . ? 
C1 Ru2 Ru6 C8 -13.1(8) . . . . ? 
C2 Ru2 Ru6 C8 -91.8(4) . . . . ? 
C3 Ru2 Ru6 C8 173.7(4) . . . . ? 
C100 Ru2 Ru6 C8 89.1(4) . . . . ? 
Ru3 Ru2 Ru6 C8 146.1(4) . . . . ? 
Ru1 Ru2 Ru6 C8 88.2(4) . . . . ? 
Ru5 Ru2 Ru6 C8 36.9(4) . . . . ? 
C1 Ru2 Ru6 C7 56.8(7) . . . . ? 
C2 Ru2 Ru6 C7 -21.9(3) . . . . ? 
C3 Ru2 Ru6 C7 -116.4(2) . . . . ? 
C100 Ru2 Ru6 C7 158.9(3) . . . . ? 
Ru3 Ru2 Ru6 C7 -144.11(18) . . . . ? 
Ru1 Ru2 Ru6 C7 158.04(18) . . . . ? 
Ru5 Ru2 Ru6 C7 106.75(18) . . . . ? 
C1 Ru2 Ru6 C100 -102.2(7) . . . . ? 
C2 Ru2 Ru6 C100 179.2(3) . . . . ? 
C3 Ru2 Ru6 C100 84.6(2) . . . . ? 
Ru3 Ru2 Ru6 C100 56.98(19) . . . . ? 
Ru1 Ru2 Ru6 C100 -0.88(19) . . . . ? 
Ru5 Ru2 Ru6 C100 -52.17(19) . . . . ? 
C1 Ru2 Ru6 Ru4 -106.6(7) . . . . ? 
C2 Ru2 Ru6 Ru4 174.73(19) . . . . ? 
C3 Ru2 Ru6 Ru4 80.21(14) . . . . ? 
C100 Ru2 Ru6 Ru4 -4.42(18) . . . . ? 
Ru3 Ru2 Ru6 Ru4 52.553(16) . . . . ? 
Ru1 Ru2 Ru6 Ru4 -5.300(17) . . . . ? 
Ru5 Ru2 Ru6 Ru4 -56.591(16) . . . . ? 
C1 Ru2 Ru6 Ru5 -50.0(7) . . . . ? 
C2 Ru2 Ru6 Ru5 -128.68(19) . . . . ? 
C3 Ru2 Ru6 Ru5 136.80(14) . . . . ? 
C100 Ru2 Ru6 Ru5 52.17(18) . . . . ? 
Ru3 Ru2 Ru6 Ru5 109.144(17) . . . . ? 
Ru1 Ru2 Ru6 Ru5 51.291(15) . . . . ? 
C1 Ru2 Ru6 Ru3 -159.1(7) . . . . ? 
C2 Ru2 Ru6 Ru3 122.18(19) . . . . ? 
C3 Ru2 Ru6 Ru3 27.66(13) . . . . ? 
C100 Ru2 Ru6 Ru3 -56.98(18) . . . . ? 
Ru1 Ru2 Ru6 Ru3 -57.853(15) . . . . ? 
Ru5 Ru2 Ru6 Ru3 -109.144(17) . . . . ? 
C5 Ru3 Ru6 C6 -86.0(6) . . . . ? 
C4 Ru3 Ru6 C6 14.7(3) . . . . ? 
C3 Ru3 Ru6 C6 106.2(3) . . . . ? 
C100 Ru3 Ru6 C6 -168.9(3) . . . . ? 
Ru2 Ru3 Ru6 C6 133.7(2) . . . . ? 
Ru1 Ru3 Ru6 C6 -168.4(2) . . . . ? 
Ru4 Ru3 Ru6 C6 -112.6(2) . . . . ? 
C5 Ru3 Ru6 C8 -13.5(6) . . . . ? 
C4 Ru3 Ru6 C8 87.3(4) . . . . ? 
C3 Ru3 Ru6 C8 178.8(4) . . . . ? 
C100 Ru3 Ru6 C8 -96.3(4) . . . . ? 
Ru2 Ru3 Ru6 C8 -153.8(3) . . . . ? 
Ru1 Ru3 Ru6 C8 -95.8(3) . . . . ? 
Ru4 Ru3 Ru6 C8 -40.0(3) . . . . ? 
C5 Ru3 Ru6 C7 -175.1(6) . . . . ? 
C4 Ru3 Ru6 C7 -74.4(3) . . . . ? 
C3 Ru3 Ru6 C7 17.1(3) . . . . ? 
C100 Ru3 Ru6 C7 102.1(3) . . . . ? 
Ru2 Ru3 Ru6 C7 44.6(2) . . . . ? 
Ru1 Ru3 Ru6 C7 102.5(2) . . . . ? 
Ru4 Ru3 Ru6 C7 158.3(2) . . . . ? 
C5 Ru3 Ru6 C100 82.8(5) . . . . ? 
C4 Ru3 Ru6 C100 -176.4(3) . . . . ? 
C3 Ru3 Ru6 C100 -84.9(2) . . . . ? 
Ru2 Ru3 Ru6 C100 -57.47(18) . . . . ? 
Ru1 Ru3 Ru6 C100 0.48(18) . . . . ? 
Ru4 Ru3 Ru6 C100 56.27(18) . . . . ? 
C5 Ru3 Ru6 Ru4 26.6(5) . . . . ? 
C4 Ru3 Ru6 Ru4 127.30(18) . . . . ? 
C3 Ru3 Ru6 Ru4 -141.19(14) . . . . ? 
C100 Ru3 Ru6 Ru4 -56.27(18) . . . . ? 
Ru2 Ru3 Ru6 Ru4 -113.741(18) . . . . ? 
Ru1 Ru3 Ru6 Ru4 -55.791(16) . . . . ? 
C5 Ru3 Ru6 Ru5 82.2(5) . . . . ? 
C4 Ru3 Ru6 Ru5 -177.03(18) . . . . ? 
C3 Ru3 Ru6 Ru5 -85.52(14) . . . . ? 
C100 Ru3 Ru6 Ru5 -0.60(18) . . . . ? 
Ru2 Ru3 Ru6 Ru5 -58.072(16) . . . . ? 
Ru1 Ru3 Ru6 Ru5 -0.123(17) . . . . ? 
Ru4 Ru3 Ru6 Ru5 55.668(17) . . . . ? 
C5 Ru3 Ru6 Ru2 140.3(5) . . . . ? 
C4 Ru3 Ru6 Ru2 -118.96(18) . . . . ? 
C3 Ru3 Ru6 Ru2 -27.45(14) . . . . ? 
C100 Ru3 Ru6 Ru2 57.47(18) . . . . ? 
Ru1 Ru3 Ru6 Ru2 57.949(15) . . . . ? 
Ru4 Ru3 Ru6 Ru2 113.741(18) . . . . ? 
C2 Ru2 C1 O1 -32(5) . . . . ? 
C3 Ru2 C1 O1 62(5) . . . . ? 
C100 Ru2 C1 O1 158(4) . . . . ? 
Ru3 Ru2 C1 O1 92(5) . . . . ? 
Ru1 Ru2 C1 O1 148(5) . . . . ? 
Ru6 Ru2 C1 O1 -112(4) . . . . ? 
Ru5 Ru2 C1 O1 -157(4) . . . . ? 
C1 Ru2 C2 O2 23(6) . . . . ? 
C3 Ru2 C2 O2 -68(6) . . . . ? 
C100 Ru2 C2 O2 -167(6) . . . . ? 
Ru3 Ru2 C2 O2 -108(6) . . . . ? 
Ru1 Ru2 C2 O2 13(10) . . . . ? 
Ru6 Ru2 C2 O2 -168(6) . . . . ? 
Ru5 Ru2 C2 O2 139(6) . . . . ? 
C1 Ru2 C3 O3 -31.0(6) . . . . ? 
C2 Ru2 C3 O3 52.2(6) . . . . ? 
C100 Ru2 C3 O3 -166.6(6) . . . . ? 
Ru3 Ru2 C3 O3 -178.0(7) . . . . ? 
Ru1 Ru2 C3 O3 -125.5(6) . . . . ? 
Ru6 Ru2 C3 O3 147.6(6) . . . . ? 
Ru5 Ru2 C3 O3 -159.4(5) . . . . ? 
C1 Ru2 C3 Ru3 146.99(19) . . . . ? 
C2 Ru2 C3 Ru3 -129.8(2) . . . . ? 
C100 Ru2 C3 Ru3 11.34(19) . . . . ? 
Ru1 Ru2 C3 Ru3 52.47(12) . . . . ? 
Ru6 Ru2 C3 Ru3 -34.37(15) . . . . ? 
Ru5 Ru2 C3 Ru3 18.6(3) . . . . ? 
C5 Ru3 C3 O3 35.7(6) . . . . ? 
C4 Ru3 C3 O3 -51.8(6) . . . . ? 
C100 Ru3 C3 O3 166.7(6) . . . . ? 
Ru2 Ru3 C3 O3 178.0(7) . . . . ? 
Ru1 Ru3 C3 O3 125.4(6) . . . . ? 
Ru4 Ru3 C3 O3 160.1(5) . . . . ? 
Ru6 Ru3 C3 O3 -148.2(6) . . . . ? 
C5 Ru3 C3 Ru2 -142.3(2) . . . . ? 
C4 Ru3 C3 Ru2 130.2(2) . . . . ? 
C100 Ru3 C3 Ru2 -11.28(19) . . . . ? 
Ru1 Ru3 C3 Ru2 -52.52(12) . . . . ? 
Ru4 Ru3 C3 Ru2 -17.9(3) . . . . ? 
Ru6 Ru3 C3 Ru2 33.84(15) . . . . ? 
C5 Ru3 C4 O4 -73(9) . . . . ? 
C3 Ru3 C4 O4 26(9) . . . . ? 
C100 Ru3 C4 O4 121(9) . . . . ? 
Ru2 Ru3 C4 O4 65(9) . . . . ? 
Ru1 Ru3 C4 O4 -11(11) . . . . ? 
Ru4 Ru3 C4 O4 -180(100) . . . . ? 
Ru6 Ru3 C4 O4 125(9) . . . . ? 
C4 Ru3 C5 O5 -58(15) . . . . ? 
C3 Ru3 C5 O5 -148(15) . . . . ? 
C100 Ru3 C5 O5 111(15) . . . . ? 
Ru2 Ru3 C5 O5 175(100) . . . . ? 
Ru1 Ru3 C5 O5 126(15) . . . . ? 
Ru4 Ru3 C5 O5 68(15) . . . . ? 
Ru6 Ru3 C5 O5 44(15) . . . . ? 
C8 Ru6 C6 O6 17(8) . . . . ? 
C7 Ru6 C6 O6 -72(8) . . . . ? 
C100 Ru6 C6 O6 154(8) . . . . ? 
Ru4 Ru6 C6 O6 108(8) . . . . ? 
Ru5 Ru6 C6 O6 112(7) . . . . ? 
Ru2 Ru6 C6 O6 -153(8) . . . . ? 
Ru3 Ru6 C6 O6 163(8) . . . . ? 
C6 Ru6 C7 O7 74(6) . . . . ? 
C8 Ru6 C7 O7 -14(6) . . . . ? 
C100 Ru6 C7 O7 -151(6) . . . . ? 
Ru4 Ru6 C7 O7 -106(6) . . . . ? 
Ru5 Ru6 C7 O7 -107(6) . . . . ? 
Ru2 Ru6 C7 O7 -168(6) . . . . ? 
Ru3 Ru6 C7 O7 155(6) . . . . ? 
C6 Ru6 C8 O8 -43(8) . . . . ? 
C7 Ru6 C8 O8 53(8) . . . . ? 
C100 Ru6 C8 O8 -176(8) . . . . ? 
Ru4 Ru6 C8 O8 -146(8) . . . . ? 
Ru5 Ru6 C8 O8 153(8) . . . . ? 
Ru2 Ru6 C8 O8 120(8) . . . . ? 
Ru3 Ru6 C8 O8 -112(8) . . . . ? 
C11 Ru4 C9 O9 24(18) . . . . ? 
C10 Ru4 C9 O9 -71(18) . . . . ? 
C100 Ru4 C9 O9 169(18) . . . . ? 
Ru6 Ru4 C9 O9 116(18) . . . . ? 
Ru1 Ru4 C9 O9 180(100) . . . . ? 
Ru5 Ru4 C9 O9 124(18) . . . . ? 
Ru3 Ru4 C9 O9 -135(18) . . . . ? 
C9 Ru4 C10 O10 62(2) . . . . ? 
C11 Ru4 C10 O10 -29(2) . . . . ? 
C100 Ru4 C10 O10 -168(2) . . . . ? 
Ru6 Ru4 C10 O10 -120(2) . . . . ? 
Ru1 Ru4 C10 O10 148(2) . . . . ? 
Ru5 Ru4 C10 O10 -153.5(18) . . . . ? 
Ru3 Ru4 C10 O10 -172(2) . . . . ? 
C9 Ru4 C11 O11 -23(15) . . . . ? 
C10 Ru4 C11 O11 74(15) . . . . ? 
C100 Ru4 C11 O11 -163(15) . . . . ? 
Ru6 Ru4 C11 O11 173(15) . . . . ? 
Ru1 Ru4 C11 O11 -100(15) . . . . ? 
Ru5 Ru4 C11 O11 -128(15) . . . . ? 
Ru3 Ru4 C11 O11 130(15) . . . . ? 
C13 Ru5 C12 O12 -2(11) . . . . ? 
C14 Ru5 C12 O12 -102(11) . . . . ? 
C100 Ru5 C12 O12 135(11) . . . . ? 
Ru1 Ru5 C12 O12 73(11) . . . . ? 
Ru6 Ru5 C12 O12 151(11) . . . . ? 
Ru4 Ru5 C12 O12 93(11) . . . . ? 
Ru2 Ru5 C12 O12 -168(11) . . . . ? 
C12 Ru5 C13 O13 39(10) . . . . ? 
C14 Ru5 C13 O13 134(10) . . . . ? 
C100 Ru5 C13 O13 -104(10) . . . . ? 
Ru1 Ru5 C13 O13 -124(10) . . . . ? 
Ru6 Ru5 C13 O13 -46(10) . . . . ? 
Ru4 Ru5 C13 O13 -65(10) . . . . ? 
Ru2 Ru5 C13 O13 -157(10) . . . . ? 
C13 Ru5 C14 O14 -41(4) . . . . ? 
C12 Ru5 C14 O14 52(4) . . . . ? 
C100 Ru5 C14 O14 -170(4) . . . . ? 
Ru1 Ru5 C14 O14 -126(4) . . . . ? 
Ru6 Ru5 C14 O14 140(4) . . . . ? 
Ru4 Ru5 C14 O14 -167(3) . . . . ? 
Ru2 Ru5 C14 O14 -175(4) . . . . ? 
C21 O15 C15 C16 -1.9(7) . . . . ? 
C21 O15 C15 C20 175.3(4) . . . . ? 
C21 O15 C15 Ru1 -95.8(5) . . . . ? 
C100 Ru1 C15 O15 3.8(7) . . . . ? 
C17 Ru1 C15 O15 149.6(6) . . . . ? 
C18 Ru1 C15 O15 -173.4(5) . . . . ? 
C19 Ru1 C15 O15 -136.8(6) . . . . ? 
C16 Ru1 C15 O15 119.4(6) . . . . ? 
C20 Ru1 C15 O15 -108.5(6) . . . . ? 
Ru5 Ru1 C15 O15 -72.4(6) . . . . ? 
Ru3 Ru1 C15 O15 42.7(5) . . . . ? 
Ru2 Ru1 C15 O15 -16.3(5) . . . . ? 
Ru4 Ru1 C15 O15 92.4(5) . . . . ? 
C100 Ru1 C15 C16 -115.7(4) . . . . ? 
C17 Ru1 C15 C16 30.2(3) . . . . ? 
C18 Ru1 C15 C16 67.2(3) . . . . ? 
C19 Ru1 C15 C16 103.8(3) . . . . ? 
C20 Ru1 C15 C16 132.1(4) . . . . ? 
Ru5 Ru1 C15 C16 168.2(2) . . . . ? 
Ru3 Ru1 C15 C16 -76.7(3) . . . . ? 
Ru2 Ru1 C15 C16 -135.7(3) . . . . ? 
Ru4 Ru1 C15 C16 -27.0(5) . . . . ? 
C100 Ru1 C15 C20 112.3(4) . . . . ? 
C17 Ru1 C15 C20 -101.9(3) . . . . ? 
C18 Ru1 C15 C20 -64.9(3) . . . . ? 
C19 Ru1 C15 C20 -28.2(3) . . . . ? 
C16 Ru1 C15 C20 -132.1(4) . . . . ? 
Ru5 Ru1 C15 C20 36.2(4) . . . . ? 
Ru3 Ru1 C15 C20 151.2(2) . . . . ? 
Ru2 Ru1 C15 C20 92.2(3) . . . . ? 
Ru4 Ru1 C15 C20 -159.1(2) . . . . ? 
O15 C15 C16 C17 177.9(5) . . . . ? 
C20 C15 C16 C17 0.8(7) . . . . ? 
Ru1 C15 C16 C17 -54.3(4) . . . . ? 
O15 C15 C16 Ru1 -127.8(5) . . . . ? 
C20 C15 C16 Ru1 55.1(4) . . . . ? 
C100 Ru1 C16 C15 110.1(4) . . . . ? 
C17 Ru1 C16 C15 -130.7(5) . . . . ? 
C18 Ru1 C16 C15 -101.1(3) . . . . ? 
C19 Ru1 C16 C15 -64.2(3) . . . . ? 
C20 Ru1 C16 C15 -28.7(3) . . . . ? 
Ru5 Ru1 C16 C15 -79.4(11) . . . . ? 
Ru3 Ru1 C16 C15 109.5(3) . . . . ? 
Ru2 Ru1 C16 C15 53.5(3) . . . . ? 
Ru4 Ru1 C16 C15 167.6(2) . . . . ? 
C100 Ru1 C16 C17 -119.2(4) . . . . ? 
C18 Ru1 C16 C17 29.6(3) . . . . ? 
C19 Ru1 C16 C17 66.5(3) . . . . ? 
C15 Ru1 C16 C17 130.7(5) . . . . ? 
C20 Ru1 C16 C17 101.9(4) . . . . ? 
Ru5 Ru1 C16 C17 51.3(12) . . . . ? 
Ru3 Ru1 C16 C17 -119.8(3) . . . . ? 
Ru2 Ru1 C16 C17 -175.8(3) . . . . ? 
Ru4 Ru1 C16 C17 -61.8(4) . . . . ? 
C15 C16 C17 C18 0.3(8) . . . . ? 
Ru1 C16 C17 C18 -56.4(4) . . . . ? 
C15 C16 C17 Ru1 56.7(4) . . . . ? 
C100 Ru1 C17 C18 -116.4(4) . . . . ? 
C19 Ru1 C17 C18 29.8(3) . . . . ? 
C16 Ru1 C17 C18 131.1(5) . . . . ? 
C15 Ru1 C17 C18 101.9(4) . . . . ? 
C20 Ru1 C17 C18 65.8(3) . . . . ? 
Ru5 Ru1 C17 C18 -40.4(4) . . . . ? 
Ru3 Ru1 C17 C18 -160.7(3) . . . . ? 
Ru2 Ru1 C17 C18 140.4(4) . . . . ? 
Ru4 Ru1 C17 C18 -98.2(3) . . . . ? 
C100 Ru1 C17 C16 112.5(4) . . . . ? 
C18 Ru1 C17 C16 -131.1(5) . . . . ? 
C19 Ru1 C17 C16 -101.3(4) . . . . ? 
C15 Ru1 C17 C16 -29.2(3) . . . . ? 
C20 Ru1 C17 C16 -65.3(3) . . . . ? 
Ru5 Ru1 C17 C16 -171.5(2) . . . . ? 
Ru3 Ru1 C17 C16 68.2(3) . . . . ? 
Ru2 Ru1 C17 C16 9.3(6) . . . . ? 
Ru4 Ru1 C17 C16 130.7(3) . . . . ? 
C16 C17 C18 C19 -0.1(8) . . . . ? 
Ru1 C17 C18 C19 -57.6(4) . . . . ? 
C16 C17 C18 Ru1 57.5(4) . . . . ? 
C100 Ru1 C18 C17 117.4(4) . . . . ? 
C19 Ru1 C18 C17 -130.6(5) . . . . ? 
C16 Ru1 C18 C17 -29.7(3) . . . . ? 
C15 Ru1 C18 C17 -65.7(3) . . . . ? 
C20 Ru1 C18 C17 -101.5(4) . . . . ? 
Ru5 Ru1 C18 C17 153.1(3) . . . . ? 
Ru3 Ru1 C18 C17 32.4(5) . . . . ? 
Ru2 Ru1 C18 C17 -141.7(3) . . . . ? 
Ru4 Ru1 C18 C17 90.0(3) . . . . ? 
C100 Ru1 C18 C19 -112.0(4) . . . . ? 
C17 Ru1 C18 C19 130.6(5) . . . . ? 
C16 Ru1 C18 C19 100.9(4) . . . . ? 
C15 Ru1 C18 C19 64.9(3) . . . . ? 
C20 Ru1 C18 C19 29.1(3) . . . . ? 
Ru5 Ru1 C18 C19 -76.2(3) . . . . ? 
Ru3 Ru1 C18 C19 163.0(2) . . . . ? 
Ru2 Ru1 C18 C19 -11.1(6) . . . . ? 
Ru4 Ru1 C18 C19 -139.4(3) . . . . ? 
C17 C18 C19 C20 -1.1(8) . . . . ? 
Ru1 C18 C19 C20 -57.6(4) . . . . ? 
C17 C18 C19 Ru1 56.5(4) . . . . ? 
C100 Ru1 C19 C18 118.6(4) . . . . ? 
C17 Ru1 C19 C18 -29.9(3) . . . . ? 
C16 Ru1 C19 C18 -67.1(3) . . . . ? 
C15 Ru1 C19 C18 -102.7(4) . . . . ? 
C20 Ru1 C19 C18 -131.0(5) . . . . ? 
Ru5 Ru1 C19 C18 111.0(3) . . . . ? 
Ru3 Ru1 C19 C18 -105.8(8) . . . . ? 
Ru2 Ru1 C19 C18 174.9(3) . . . . ? 
Ru4 Ru1 C19 C18 54.3(4) . . . . ? 
C100 Ru1 C19 C20 -110.4(4) . . . . ? 
C17 Ru1 C19 C20 101.1(4) . . . . ? 
C18 Ru1 C19 C20 131.0(5) . . . . ? 
C16 Ru1 C19 C20 63.9(3) . . . . ? 
C15 Ru1 C19 C20 28.3(3) . . . . ? 
Ru5 Ru1 C19 C20 -118.0(3) . . . . ? 
Ru3 Ru1 C19 C20 25.2(10) . . . . ? 
Ru2 Ru1 C19 C20 -54.1(3) . . . . ? 
Ru4 Ru1 C19 C20 -174.7(2) . . . . ? 
C30 O20 C20 C19 -1.9(7) . . . . ? 
C30 O20 C20 C15 -179.7(4) . . . . ? 
C30 O20 C20 Ru1 91.9(5) . . . . ? 
C18 C19 C20 O20 -175.5(4) . . . . ? 
Ru1 C19 C20 O20 129.5(5) . . . . ? 
C18 C19 C20 C15 2.2(7) . . . . ? 
Ru1 C19 C20 C15 -52.8(4) . . . . ? 
C18 C19 C20 Ru1 55.0(4) . . . . ? 
O15 C15 C20 O20 -1.5(6) . . . . ? 
C16 C15 C20 O20 175.9(4) . . . . ? 
Ru1 C15 C20 O20 -130.3(4) . . . . ? 
O15 C15 C20 C19 -179.4(4) . . . . ? 
C16 C15 C20 C19 -2.0(7) . . . . ? 
Ru1 C15 C20 C19 51.8(4) . . . . ? 
O15 C15 C20 Ru1 128.8(4) . . . . ? 
C16 C15 C20 Ru1 -53.8(4) . . . . ? 
C100 Ru1 C20 O20 -3.6(7) . . . . ? 
C17 Ru1 C20 O20 174.4(5) . . . . ? 
C18 Ru1 C20 O20 -148.5(6) . . . . ? 
C19 Ru1 C20 O20 -118.7(7) . . . . ? 
C16 Ru1 C20 O20 137.1(5) . . . . ? 
C15 Ru1 C20 O20 108.5(6) . . . . ? 
Ru5 Ru1 C20 O20 -48.9(5) . . . . ? 
Ru3 Ru1 C20 O20 67.3(6) . . . . ? 
Ru2 Ru1 C20 O20 16.5(5) . . . . ? 
Ru4 Ru1 C20 O20 -103.3(5) . . . . ? 
C100 Ru1 C20 C19 115.1(4) . . . . ? 
C17 Ru1 C20 C19 -66.9(3) . . . . ? 
C18 Ru1 C20 C19 -29.8(3) . . . . ? 
C16 Ru1 C20 C19 -104.1(3) . . . . ? 
C15 Ru1 C20 C19 -132.8(4) . . . . ? 
Ru5 Ru1 C20 C19 69.9(3) . . . . ? 
Ru3 Ru1 C20 C19 -174.0(2) . . . . ? 
Ru2 Ru1 C20 C19 135.2(3) . . . . ? 
Ru4 Ru1 C20 C19 15.4(7) . . . . ? 
C100 Ru1 C20 C15 -112.0(4) . . . . ? 
C17 Ru1 C20 C15 65.9(3) . . . . ? 
C18 Ru1 C20 C15 103.0(3) . . . . ? 
C19 Ru1 C20 C15 132.8(4) . . . . ? 
C16 Ru1 C20 C15 28.7(3) . . . . ? 
Ru5 Ru1 C20 C15 -157.3(2) . . . . ? 
Ru3 Ru1 C20 C15 -41.2(3) . . . . ? 
Ru2 Ru1 C20 C15 -92.0(3) . . . . ? 
Ru4 Ru1 C20 C15 148.2(4) . . . . ? 
C15 O15 C21 C22 173.7(4) . . . . ? 
C23 O16 C22 C21 173.9(4) . . . . ? 
O15 C21 C22 O16 66.4(5) . . . . ? 
C22 O16 C23 C24 175.7(5) . . . . ? 
C25 O17 C24 C23 -174.9(4) . . . . ? 
O16 C23 C24 O17 -68.3(5) . . . . ? 
C24 O17 C25 C26 -175.4(4) . . . . ? 
C27 O18 C26 C25 -177.7(5) . . . . ? 
O17 C25 C26 O18 70.2(6) . . . . ? 
C26 O18 C27 C28 94.3(6) . . . . ? 
C29 O19 C28 C27 174.3(4) . . . . ? 
O18 C27 C28 O19 67.9(6) . . . . ? 
C28 O19 C29 C30 179.8(4) . . . . ? 
C20 O20 C30 C29 -177.4(4) . . . . ? 
O19 C29 C30 O20 -67.0(5) . . . . ? 
C17 Ru1 C100 Ru5 115.6(3) . . . . ? 
C18 Ru1 C100 Ru5 51.1(4) . . . . ? 
C19 Ru1 C100 Ru5 -10.5(4) . . . . ? 
C16 Ru1 C100 Ru5 178.3(2) . . . . ? 
C15 Ru1 C100 Ru5 -124.2(3) . . . . ? 
C20 Ru1 C100 Ru5 -67.8(3) . . . . ? 
Ru3 Ru1 C100 Ru5 179.1(3) . . . . ? 
Ru2 Ru1 C100 Ru5 -96.0(2) . . . . ? 
Ru4 Ru1 C100 Ru5 90.03(19) . . . . ? 
C17 Ru1 C100 Ru4 25.5(4) . . . . ? 
C18 Ru1 C100 Ru4 -38.9(4) . . . . ? 
C19 Ru1 C100 Ru4 -100.6(3) . . . . ? 
C16 Ru1 C100 Ru4 88.3(3) . . . . ? 
C15 Ru1 C100 Ru4 145.7(2) . . . . ? 
C20 Ru1 C100 Ru4 -157.9(2) . . . . ? 
Ru5 Ru1 C100 Ru4 -90.03(19) . . . . ? 
Ru3 Ru1 C100 Ru4 89.1(2) . . . . ? 
Ru2 Ru1 C100 Ru4 174.0(3) . . . . ? 
C17 Ru1 C100 Ru2 -148.4(3) . . . . ? 
C18 Ru1 C100 Ru2 147.1(3) . . . . ? 
C19 Ru1 C100 Ru2 85.4(3) . . . . ? 
C16 Ru1 C100 Ru2 -85.7(3) . . . . ? 
C15 Ru1 C100 Ru2 -28.2(4) . . . . ? 
C20 Ru1 C100 Ru2 28.2(4) . . . . ? 
Ru5 Ru1 C100 Ru2 96.0(2) . . . . ? 
Ru3 Ru1 C100 Ru2 -84.89(18) . . . . ? 
Ru4 Ru1 C100 Ru2 -174.0(3) . . . . ? 
C17 Ru1 C100 Ru3 -63.6(4) . . . . ? 
C18 Ru1 C100 Ru3 -128.0(3) . . . . ? 
C19 Ru1 C100 Ru3 170.3(2) . . . . ? 
C16 Ru1 C100 Ru3 -0.8(4) . . . . ? 
C15 Ru1 C100 Ru3 56.7(3) . . . . ? 
C20 Ru1 C100 Ru3 113.1(3) . . . . ? 
Ru5 Ru1 C100 Ru3 -179.1(3) . . . . ? 
Ru2 Ru1 C100 Ru3 84.89(18) . . . . ? 
Ru4 Ru1 C100 Ru3 -89.1(2) . . . . ? 
C17 Ru1 C100 Ru6 89(10) . . . . ? 
C18 Ru1 C100 Ru6 25(11) . . . . ? 
C19 Ru1 C100 Ru6 -37(11) . . . . ? 
C16 Ru1 C100 Ru6 152(10) . . . . ? 
C15 Ru1 C100 Ru6 -151(10) . . . . ? 
C20 Ru1 C100 Ru6 -94(10) . . . . ? 
Ru5 Ru1 C100 Ru6 -26(10) . . . . ? 
Ru3 Ru1 C100 Ru6 153(10) . . . . ? 
Ru2 Ru1 C100 Ru6 -122(10) . . . . ? 
Ru4 Ru1 C100 Ru6 64(10) . . . . ? 
C13 Ru5 C100 Ru1 -30.9(3) . . . . ? 
C12 Ru5 C100 Ru1 -157.2(3) . . . . ? 
C14 Ru5 C100 Ru1 85.3(2) . . . . ? 
Ru6 Ru5 C100 Ru1 -179.3(3) . . . . ? 
Ru4 Ru5 C100 Ru1 -92.84(19) . . . . ? 
Ru2 Ru5 C100 Ru1 92.2(2) . . . . ? 
C13 Ru5 C100 Ru4 61.9(3) . . . . ? 
C12 Ru5 C100 Ru4 -64.4(4) . . . . ? 
C14 Ru5 C100 Ru4 178.2(2) . . . . ? 
Ru1 Ru5 C100 Ru4 92.84(19) . . . . ? 
Ru6 Ru5 C100 Ru4 -86.47(19) . . . . ? 
Ru2 Ru5 C100 Ru4 -174.9(3) . . . . ? 
C13 Ru5 C100 Ru2 -123.1(2) . . . . ? 
C12 Ru5 C100 Ru2 110.5(3) . . . . ? 
C14 Ru5 C100 Ru2 -6.9(3) . . . . ? 
Ru1 Ru5 C100 Ru2 -92.2(2) . . . . ? 
Ru6 Ru5 C100 Ru2 88.45(17) . . . . ? 
Ru4 Ru5 C100 Ru2 174.9(3) . . . . ? 
C13 Ru5 C100 Ru3 134(4) . . . . ? 
C12 Ru5 C100 Ru3 8(5) . . . . ? 
C14 Ru5 C100 Ru3 -110(4) . . . . ? 
Ru1 Ru5 C100 Ru3 165(5) . . . . ? 
Ru6 Ru5 C100 Ru3 -15(4) . . . . ? 
Ru4 Ru5 C100 Ru3 72(4) . . . . ? 
Ru2 Ru5 C100 Ru3 -103(4) . . . . ? 
C13 Ru5 C100 Ru6 148.4(2) . . . . ? 
C12 Ru5 C100 Ru6 22.1(4) . . . . ? 
C14 Ru5 C100 Ru6 -95.4(2) . . . . ? 
Ru1 Ru5 C100 Ru6 179.3(3) . . . . ? 
Ru4 Ru5 C100 Ru6 86.47(19) . . . . ? 
Ru2 Ru5 C100 Ru6 -88.45(17) . . . . ? 
C9 Ru4 C100 Ru1 16.7(3) . . . . ? 
C11 Ru4 C100 Ru1 145.7(2) . . . . ? 
C10 Ru4 C100 Ru1 -97.2(2) . . . . ? 
Ru6 Ru4 C100 Ru1 178.6(3) . . . . ? 
Ru5 Ru4 C100 Ru1 91.52(19) . . . . ? 
Ru3 Ru4 C100 Ru1 -91.7(2) . . . . ? 
C9 Ru4 C100 Ru5 -74.8(3) . . . . ? 
C11 Ru4 C100 Ru5 54.2(3) . . . . ? 
C10 Ru4 C100 Ru5 171.28(19) . . . . ? 
Ru6 Ru4 C100 Ru5 87.08(19) . . . . ? 
Ru1 Ru4 C100 Ru5 -91.52(19) . . . . ? 
Ru3 Ru4 C100 Ru5 176.8(3) . . . . ? 
C9 Ru4 C100 Ru2 146(2) . . . . ? 
C11 Ru4 C100 Ru2 -85(2) . . . . ? 
C10 Ru4 C100 Ru2 32(2) . . . . ? 
Ru6 Ru4 C100 Ru2 -52(2) . . . . ? 
Ru1 Ru4 C100 Ru2 129(2) . . . . ? 
Ru5 Ru4 C100 Ru2 -139(2) . . . . ? 
Ru3 Ru4 C100 Ru2 37.5(19) . . . . ? 
C9 Ru4 C100 Ru3 108.4(3) . . . . ? 
C11 Ru4 C100 Ru3 -122.6(3) . . . . ? 
C10 Ru4 C100 Ru3 -5.5(3) . . . . ? 
Ru6 Ru4 C100 Ru3 -89.74(17) . . . . ? 
Ru1 Ru4 C100 Ru3 91.7(2) . . . . ? 
Ru5 Ru4 C100 Ru3 -176.8(3) . . . . ? 
C9 Ru4 C100 Ru6 -161.9(2) . . . . ? 
C11 Ru4 C100 Ru6 -32.9(3) . . . . ? 
C10 Ru4 C100 Ru6 84.2(2) . . . . ? 
Ru1 Ru4 C100 Ru6 -178.6(3) . . . . ? 
Ru5 Ru4 C100 Ru6 -87.08(19) . . . . ? 
Ru3 Ru4 C100 Ru6 89.74(17) . . . . ? 
C1 Ru2 C100 Ru1 -14.9(4) . . . . ? 
C2 Ru2 C100 Ru1 180.0(3) . . . . ? 
C3 Ru2 C100 Ru1 80.4(2) . . . . ? 
Ru3 Ru2 C100 Ru1 91.5(2) . . . . ? 
Ru6 Ru2 C100 Ru1 -178.7(3) . . . . ? 
Ru5 Ru2 C100 Ru1 -91.7(2) . . . . ? 
C1 Ru2 C100 Ru5 76.8(4) . . . . ? 
C2 Ru2 C100 Ru5 -88.3(4) . . . . ? 
C3 Ru2 C100 Ru5 172.2(2) . . . . ? 
Ru3 Ru2 C100 Ru5 -176.7(3) . . . . ? 
Ru1 Ru2 C100 Ru5 91.7(2) . . . . ? 
Ru6 Ru2 C100 Ru5 -86.9(2) . . . . ? 
C1 Ru2 C100 Ru4 -144(2) . . . . ? 
C2 Ru2 C100 Ru4 51(2) . . . . ? 
C3 Ru2 C100 Ru4 -49(2) . . . . ? 
Ru3 Ru2 C100 Ru4 -38(2) . . . . ? 
Ru1 Ru2 C100 Ru4 -129(2) . . . . ? 
Ru6 Ru2 C100 Ru4 52(2) . . . . ? 
Ru5 Ru2 C100 Ru4 139(2) . . . . ? 
C1 Ru2 C100 Ru3 -106.5(3) . . . . ? 
C2 Ru2 C100 Ru3 88.5(4) . . . . ? 
C3 Ru2 C100 Ru3 -11.12(19) . . . . ? 
Ru1 Ru2 C100 Ru3 -91.5(2) . . . . ? 
Ru6 Ru2 C100 Ru3 89.79(17) . . . . ? 
Ru5 Ru2 C100 Ru3 176.7(3) . . . . ? 
C1 Ru2 C100 Ru6 163.7(3) . . . . ? 
C2 Ru2 C100 Ru6 -1.3(4) . . . . ? 
C3 Ru2 C100 Ru6 -100.91(19) . . . . ? 
Ru3 Ru2 C100 Ru6 -89.79(17) . . . . ? 
Ru1 Ru2 C100 Ru6 178.7(3) . . . . ? 
Ru5 Ru2 C100 Ru6 86.9(2) . . . . ? 
C5 Ru3 C100 Ru1 23.2(3) . . . . ? 
C4 Ru3 C100 Ru1 -175.0(3) . . . . ? 
C3 Ru3 C100 Ru1 -80.9(2) . . . . ? 
Ru2 Ru3 C100 Ru1 -91.9(2) . . . . ? 
Ru4 Ru3 C100 Ru1 92.81(18) . . . . ? 
Ru6 Ru3 C100 Ru1 179.3(3) . . . . ? 
C5 Ru3 C100 Ru5 -142(4) . . . . ? 
C4 Ru3 C100 Ru5 20(5) . . . . ? 
C3 Ru3 C100 Ru5 114(4) . . . . ? 
Ru2 Ru3 C100 Ru5 103(4) . . . . ? 
Ru1 Ru3 C100 Ru5 -165(5) . . . . ? 
Ru4 Ru3 C100 Ru5 -72(4) . . . . ? 
Ru6 Ru3 C100 Ru5 15(4) . . . . ? 
C5 Ru3 C100 Ru4 -69.6(3) . . . . ? 
C4 Ru3 C100 Ru4 92.2(3) . . . . ? 
C3 Ru3 C100 Ru4 -173.67(19) . . . . ? 
Ru2 Ru3 C100 Ru4 175.3(2) . . . . ? 
Ru1 Ru3 C100 Ru4 -92.81(18) . . . . ? 
Ru6 Ru3 C100 Ru4 86.48(19) . . . . ? 
C5 Ru3 C100 Ru2 115.1(3) . . . . ? 
C4 Ru3 C100 Ru2 -83.1(4) . . . . ? 
C3 Ru3 C100 Ru2 11.07(19) . . . . ? 
Ru1 Ru3 C100 Ru2 91.9(2) . . . . ? 
Ru4 Ru3 C100 Ru2 -175.3(2) . . . . ? 
Ru6 Ru3 C100 Ru2 -88.78(16) . . . . ? 
C5 Ru3 C100 Ru6 -156.1(2) . . . . ? 
C4 Ru3 C100 Ru6 5.7(4) . . . . ? 
C3 Ru3 C100 Ru6 99.85(19) . . . . ? 
Ru2 Ru3 C100 Ru6 88.78(16) . . . . ? 
Ru1 Ru3 C100 Ru6 -179.3(3) . . . . ? 
Ru4 Ru3 C100 Ru6 -86.48(19) . . . . ? 
C6 Ru6 C100 Ru1 -140(10) . . . . ? 
C8 Ru6 C100 Ru1 -21(10) . . . . ? 
C7 Ru6 C100 Ru1 98(10) . . . . ? 
Ru4 Ru6 C100 Ru1 -64(10) . . . . ? 
Ru5 Ru6 C100 Ru1 26(10) . . . . ? 
Ru2 Ru6 C100 Ru1 122(10) . . . . ? 
Ru3 Ru6 C100 Ru1 -153(10) . . . . ? 
C6 Ru6 C100 Ru5 -165.9(3) . . . . ? 
C8 Ru6 C100 Ru5 -47.5(4) . . . . ? 
C7 Ru6 C100 Ru5 71.5(3) . . . . ? 
Ru4 Ru6 C100 Ru5 -90.13(18) . . . . ? 
Ru2 Ru6 C100 Ru5 96.00(19) . . . . ? 
Ru3 Ru6 C100 Ru5 -179.2(3) . . . . ? 
C6 Ru6 C100 Ru4 -75.8(3) . . . . ? 
C8 Ru6 C100 Ru4 42.7(4) . . . . ? 
C7 Ru6 C100 Ru4 161.6(2) . . . . ? 
Ru5 Ru6 C100 Ru4 90.13(18) . . . . ? 
Ru2 Ru6 C100 Ru4 -173.9(3) . . . . ? 
Ru3 Ru6 C100 Ru4 -89.03(18) . . . . ? 
C6 Ru6 C100 Ru2 98.1(3) . . . . ? 
C8 Ru6 C100 Ru2 -143.5(3) . . . . ? 
C7 Ru6 C100 Ru2 -24.5(3) . . . . ? 
Ru4 Ru6 C100 Ru2 173.9(3) . . . . ? 
Ru5 Ru6 C100 Ru2 -96.00(19) . . . . ? 
Ru3 Ru6 C100 Ru2 84.84(17) . . . . ? 
C6 Ru6 C100 Ru3 13.2(3) . . . . ? 
C8 Ru6 C100 Ru3 131.7(3) . . . . ? 
C7 Ru6 C100 Ru3 -109.4(2) . . . . ? 
Ru4 Ru6 C100 Ru3 89.03(18) . . . . ? 
Ru5 Ru6 C100 Ru3 179.2(3) . . . . ? 
Ru2 Ru6 C100 Ru3 -84.84(17) . . . . ? 
  
_diffrn_measured_fraction_theta_max    0.981 
_diffrn_reflns_theta_full              25.03 
_diffrn_measured_fraction_theta_full   0.981 
_refine_diff_density_max    0.742 
_refine_diff_density_min   -0.777 
_refine_diff_density_rms    0.130 
