 

 
 
 
 
 
 
 
 
data_sl0522 
 
_audit_creation_method            SHELXL-97 
_chemical_name_systematic 
; 
 ? 
; 
_chemical_name_common             ? 
_chemical_melting_point           ? 
_chemical_formula_moiety
 'C14 H24 O7' 
_chemical_formula_sum 
 'C14 H24 O7' 
_chemical_formula_weight          304.33 
 
loop_ 
 _atom_type_symbol 
 _atom_type_description 
 _atom_type_scat_dispersion_real 
 _atom_type_scat_dispersion_imag 
 _atom_type_scat_source 
 'C'  'C'   0.0033   0.0016 
 'International Tables Vol C Tables 4.2.6.8 and 6.1.1.4' 
 'H'  'H'   0.0000   0.0000 
 'International Tables Vol C Tables 4.2.6.8 and 6.1.1.4' 
 'O'  'O'   0.0106   0.0060 
 'International Tables Vol C Tables 4.2.6.8 and 6.1.1.4' 
 
_symmetry_cell_setting            orthorhombic 
_symmetry_space_group_name_H-M    P2(1)2(1)2(1) 
 
loop_ 
 _symmetry_equiv_pos_as_xyz 
 'x, y, z' 
 '-x+1/2, -y, z+1/2' 
 'x+1/2, -y+1/2, -z' 
 '-x, y+1/2, -z+1/2' 
 
_cell_length_a                    7.07950(10) 
_cell_length_b                    12.1314(3) 
_cell_length_c                    17.6388(4) 
_cell_angle_alpha                 90.00 
_cell_angle_beta                  90.00 
_cell_angle_gamma                 90.00 
_cell_volume                      1514.90(6) 
_cell_formula_units_Z             4 
_cell_measurement_temperature     120(2) 
_cell_measurement_reflns_used     10848 
_cell_measurement_theta_min       1.00 
_cell_measurement_theta_max       27.48 
 
_exptl_crystal_description        block 
_exptl_crystal_colour             colourless 
_exptl_crystal_size_max           0.46 
_exptl_crystal_size_mid           0.35 
_exptl_crystal_size_min           0.23 
_exptl_crystal_density_meas       ? 
_exptl_crystal_density_diffrn     1.334 
_exptl_crystal_density_method     'not measured' 
_exptl_crystal_F_000              656 
_exptl_absorpt_coefficient_mu     0.107 
_exptl_absorpt_correction_type 'multi-scan' 
_exptl_absorpt_correction_T_min  0.922
_exptl_absorpt_correction_T_max  0.977
_exptl_absorpt_process_details
;
multi-scan from symmetry-related measurements 
 Sortav (Blessing 1995)
;
 
_exptl_special_details 
; 
 The -OH hydrogen atom was located and its position was refined
 satisfactorily.  1531 Friedel pairs were averaged for the refinement.
; 
 
_diffrn_ambient_temperature       120(2) 
_diffrn_radiation_wavelength      0.71073 
_diffrn_radiation_type            MoK\a 
_diffrn_radiation_source          'fine-focus sealed tube'
_diffrn_measurement_device_type   'Nonius Kappa CCD'
_diffrn_measurement_method        'Thin slice \w and \f scans'
_diffrn_reflns_number             11356 
_diffrn_reflns_av_R_equivalents   0.0327 
_diffrn_reflns_av_sigmaI/netI     0.0230 
_diffrn_reflns_limit_h_min        -9 
_diffrn_reflns_limit_h_max        9 
_diffrn_reflns_limit_k_min        -13 
_diffrn_reflns_limit_k_max        15 
_diffrn_reflns_limit_l_min        -22 
_diffrn_reflns_limit_l_max        22 
_diffrn_reflns_theta_min          3.85 
_diffrn_reflns_theta_max          27.48 
_reflns_number_total              1993 
_reflns_number_gt                 1903 
_reflns_threshold_expression      >2sigma(I) 
 
_computing_data_collection        'Collect (Nonius B.V. 1998)'
_computing_cell_refinement        'HKL Scalepack (Otwinowski & Minor 1997)' 
_computing_data_reduction
;
 HKL Denzo and Scalepack (Otwinowski & Minor 1997)
;
_computing_structure_solution     'SIR-92 (Altomare et al. 1994)'
_computing_structure_refinement   'SHELXL-97 (Sheldrick 1997)' 
_computing_publication_material   'SHELXL-97 (Sheldrick 1997)' 
 
_refine_special_details 
; 
 Refinement of F^2^ against ALL reflections.  The weighted R-factor wR and 
 goodness of fit S are based on F^2^, conventional R-factors R are based 
 on F, with F set to zero for negative F^2^. The threshold expression of 
 F^2^ > 2sigma(F^2^) is used only for calculating R-factors(gt) etc. and is 
 not relevant to the choice of reflections for refinement.  R-factors based 
 on F^2^ are statistically about twice as large as those based on F, and R- 
 factors based on ALL data will be even larger. 
; 
 
_refine_ls_structure_factor_coef  Fsqd  
_refine_ls_matrix_type            full 
_refine_ls_weighting_scheme       calc  
_refine_ls_weighting_details 
 'calc w=1/[\s^2^(Fo^2^)+(0.0434P)^2^+0.3068P] where P=(Fo^2^+2Fc^2^)/3' 
_atom_sites_solution_primary      direct 
_atom_sites_solution_secondary    difmap 
_atom_sites_solution_hydrogens    geom 
_refine_ls_hydrogen_treatment     mixed 
_refine_ls_extinction_method      none 
_refine_ls_extinction_coef        ? 
_refine_ls_abs_structure_details 
 'Flack H D (1983), Acta Cryst. A39, 876-881' 
_refine_ls_abs_structure_Flack    -0.9(8) 
_refine_ls_number_reflns          1993 
_refine_ls_number_parameters      198 
_refine_ls_number_restraints      1 
_refine_ls_R_factor_all           0.0293 
_refine_ls_R_factor_gt            0.0276 
_refine_ls_wR_factor_ref          0.0737 
_refine_ls_wR_factor_gt           0.0722 
_refine_ls_goodness_of_fit_ref    1.035 
_refine_ls_restrained_S_all       1.036 
_refine_ls_shift/su_max           0.000 
_refine_ls_shift/su_mean          0.000 
 
loop_ 
 _atom_site_label 
 _atom_site_type_symbol 
 _atom_site_fract_x 
 _atom_site_fract_y 
 _atom_site_fract_z 
 _atom_site_U_iso_or_equiv 
 _atom_site_adp_type 
 _atom_site_occupancy 
 _atom_site_symmetry_multiplicity 
 _atom_site_calc_flag 
 _atom_site_refinement_flags 
 _atom_site_disorder_assembly 
 _atom_site_disorder_group 
O1 O 0.46258(15) -0.08431(9) 0.68075(6) 0.0178(2) Uani 1 1 d . . . 
O2 O -0.01742(15) -0.03147(9) 0.63576(6) 0.0173(2) Uani 1 1 d . . . 
O3 O 0.26334(15) -0.18060(8) 0.59930(5) 0.0148(2) Uani 1 1 d . . . 
O4 O 0.25355(15) 0.04753(8) 0.58329(5) 0.0153(2) Uani 1 1 d . . . 
O5 O 0.42304(17) -0.19044(9) 0.40443(6) 0.0221(2) Uani 1 1 d D . . 
H5 H 0.530(2) -0.2377(15) 0.4005(11) 0.027 Uiso 1 1 d D . . 
O6 O 0.51601(15) 0.06841(9) 0.46890(6) 0.0190(2) Uani 1 1 d . . . 
O7 O 0.63723(17) 0.06856(10) 0.34504(6) 0.0255(3) Uani 1 1 d . . . 
C1 C 0.5820(2) -0.17291(14) 0.70443(10) 0.0237(3) Uani 1 1 d . . . 
H1A H 0.7145 -0.1511 0.6988 0.036 Uiso 1 1 calc R . . 
H1B H 0.5570 -0.2379 0.6730 0.036 Uiso 1 1 calc R . . 
H1C H 0.5563 -0.1904 0.7577 0.036 Uiso 1 1 calc R . . 
C2 C 0.2735(2) -0.11233(12) 0.66591(7) 0.0150(3) Uani 1 1 d . . . 
C3 C 0.1815(2) -0.17786(12) 0.72907(8) 0.0184(3) Uani 1 1 d . . . 
H3A H 0.2396 -0.2511 0.7320 0.028 Uiso 1 1 calc R . . 
H3B H 0.0462 -0.1856 0.7187 0.028 Uiso 1 1 calc R . . 
H3C H 0.1993 -0.1393 0.7774 0.028 Uiso 1 1 calc R . . 
C4 C 0.1727(2) -0.00160(12) 0.64924(8) 0.0155(3) Uani 1 1 d . . . 
C5 C 0.1957(2) 0.08244(12) 0.71244(8) 0.0214(3) Uani 1 1 d . . . 
H5B H 0.1471 0.1540 0.6955 0.032 Uiso 1 1 calc R . . 
H5C H 0.3298 0.0895 0.7254 0.032 Uiso 1 1 calc R . . 
H5D H 0.1251 0.0580 0.7572 0.032 Uiso 1 1 calc R . . 
C6 C -0.1409(2) 0.05751(14) 0.61622(9) 0.0235(3) Uani 1 1 d . . . 
H6A H -0.2624 0.0279 0.5991 0.035 Uiso 1 1 calc R . . 
H6B H -0.0840 0.1011 0.5754 0.035 Uiso 1 1 calc R . . 
H6C H -0.1607 0.1045 0.6607 0.035 Uiso 1 1 calc R . . 
C7 C 0.3441(2) -0.13081(12) 0.53234(7) 0.0148(3) Uani 1 1 d . . . 
H7 H 0.4821 -0.1175 0.5401 0.018 Uiso 1 1 calc R . . 
C8 C 0.2428(2) -0.02178(11) 0.51767(7) 0.0145(3) Uani 1 1 d . . . 
H8 H 0.1068 -0.0377 0.5070 0.017 Uiso 1 1 calc R . . 
C9 C 0.3144(2) -0.21535(12) 0.46959(8) 0.0182(3) Uani 1 1 d . . . 
H9A H 0.3498 -0.2893 0.4885 0.022 Uiso 1 1 calc R . . 
H9B H 0.1789 -0.2173 0.4557 0.022 Uiso 1 1 calc R . . 
C10 C 0.3232(2) 0.04435(12) 0.45161(8) 0.0160(3) Uani 1 1 d . . . 
H10 H 0.3182 -0.0018 0.4047 0.019 Uiso 1 1 calc R . . 
C11 C 0.2088(2) 0.14539(12) 0.43964(8) 0.0175(3) Uani 1 1 d . . . 
C12 C 0.1111(2) 0.22345(13) 0.42907(9) 0.0217(3) Uani 1 1 d . . . 
H12 H 0.0330 0.2859 0.4206 0.026 Uiso 1 1 calc R . . 
C13 C 0.6121(2) 0.12834(13) 0.41204(9) 0.0220(3) Uani 1 1 d . . . 
H13A H 0.5400 0.1962 0.4006 0.026 Uiso 1 1 calc R . . 
H13B H 0.7374 0.1508 0.4317 0.026 Uiso 1 1 calc R . . 
C14 C 0.7766(3) -0.01516(15) 0.35110(11) 0.0313(4) Uani 1 1 d . . . 
H14A H 0.7946 -0.0502 0.3016 0.047 Uiso 1 1 calc R . . 
H14B H 0.7353 -0.0706 0.3880 0.047 Uiso 1 1 calc R . . 
H14C H 0.8960 0.0175 0.3679 0.047 Uiso 1 1 calc R . . 
 
loop_ 
 _atom_site_aniso_label 
 _atom_site_aniso_U_11 
 _atom_site_aniso_U_22 
 _atom_site_aniso_U_33 
 _atom_site_aniso_U_23 
 _atom_site_aniso_U_13 
 _atom_site_aniso_U_12 
O1 0.0143(5) 0.0200(5) 0.0190(5) 0.0001(4) -0.0034(4) 0.0000(4) 
O2 0.0136(5) 0.0192(5) 0.0192(5) 0.0025(4) 0.0012(4) 0.0014(4) 
O3 0.0182(5) 0.0137(4) 0.0124(4) 0.0002(4) 0.0009(4) -0.0009(4) 
O4 0.0191(5) 0.0144(4) 0.0124(4) -0.0007(4) 0.0023(4) -0.0020(4) 
O5 0.0249(6) 0.0234(5) 0.0181(5) -0.0008(5) 0.0049(4) 0.0038(5) 
O6 0.0166(5) 0.0235(5) 0.0168(5) 0.0023(4) 0.0011(4) -0.0047(5) 
O7 0.0235(6) 0.0357(6) 0.0173(5) 0.0023(5) 0.0024(4) 0.0014(5) 
C1 0.0196(7) 0.0271(8) 0.0245(7) 0.0005(6) -0.0040(6) 0.0052(7) 
C2 0.0165(7) 0.0162(6) 0.0124(6) -0.0015(5) -0.0004(5) -0.0005(6) 
C3 0.0217(7) 0.0184(7) 0.0153(6) 0.0024(5) 0.0010(6) -0.0008(6) 
C4 0.0177(7) 0.0163(6) 0.0127(6) 0.0003(5) 0.0007(5) -0.0001(6) 
C5 0.0296(8) 0.0173(7) 0.0174(6) -0.0033(6) 0.0003(6) 0.0015(7) 
C6 0.0195(7) 0.0249(7) 0.0261(7) 0.0029(6) -0.0004(6) 0.0060(7) 
C7 0.0155(6) 0.0155(6) 0.0135(6) 0.0003(5) 0.0015(5) -0.0017(6) 
C8 0.0155(6) 0.0153(6) 0.0128(6) 0.0004(5) 0.0003(5) -0.0017(6) 
C9 0.0208(7) 0.0177(6) 0.0160(6) -0.0033(5) 0.0028(6) -0.0025(6) 
C10 0.0160(7) 0.0172(6) 0.0148(6) 0.0013(5) 0.0001(5) -0.0019(6) 
C11 0.0198(7) 0.0183(7) 0.0144(6) 0.0003(5) 0.0020(5) -0.0038(6) 
C12 0.0230(8) 0.0198(7) 0.0222(7) 0.0009(6) 0.0025(6) -0.0020(7) 
C13 0.0211(8) 0.0197(7) 0.0253(7) 0.0026(6) 0.0065(6) -0.0029(6) 
C14 0.0271(9) 0.0291(8) 0.0376(9) -0.0043(7) 0.0086(8) -0.0004(8) 
 
_geom_special_details 
; 
 All esds (except the esd in the dihedral angle between two l.s. planes) 
 are estimated using the full covariance matrix.  The cell esds are taken 
 into account individually in the estimation of esds in distances, angles 
 and torsion angles; correlations between esds in cell parameters are only 
 used when they are defined by crystal symmetry.  An approximate (isotropic) 
 treatment of cell esds is used for estimating esds involving l.s. planes. 
; 
 
loop_ 
 _geom_bond_atom_site_label_1 
 _geom_bond_atom_site_label_2 
 _geom_bond_distance 
 _geom_bond_site_symmetry_2 
 _geom_bond_publ_flag 
O1 C2 1.4056(18) . ? 
O1 C1 1.4298(19) . ? 
O2 C4 1.4140(18) . ? 
O2 C6 1.4309(18) . ? 
O3 C2 1.4393(15) . ? 
O3 C7 1.4445(16) . ? 
O4 C4 1.4270(16) . ? 
O4 C8 1.4327(15) . ? 
O5 C9 1.4158(17) . ? 
O5 H5 0.953(15) . ? 
O6 C13 1.4133(18) . ? 
O6 C10 1.4288(18) . ? 
O7 C13 1.3981(19) . ? 
O7 C14 1.420(2) . ? 
C1 H1A 0.9800 . ? 
C1 H1B 0.9800 . ? 
C1 H1C 0.9800 . ? 
C2 C3 1.5157(19) . ? 
C2 C4 1.549(2) . ? 
C3 H3A 0.9800 . ? 
C3 H3B 0.9800 . ? 
C3 H3C 0.9800 . ? 
C4 C5 1.5195(19) . ? 
C5 H5B 0.9800 . ? 
C5 H5C 0.9800 . ? 
C5 H5D 0.9800 . ? 
C6 H6A 0.9800 . ? 
C6 H6B 0.9800 . ? 
C6 H6C 0.9800 . ? 
C7 C9 1.5236(18) . ? 
C7 C8 1.5267(19) . ? 
C7 H7 1.0000 . ? 
C8 C10 1.5250(18) . ? 
C8 H8 1.0000 . ? 
C9 H9A 0.9900 . ? 
C9 H9B 0.9900 . ? 
C10 C11 1.484(2) . ? 
C10 H10 1.0000 . ? 
C11 C12 1.187(2) . ? 
C12 H12 0.9500 . ? 
C13 H13A 0.9900 . ? 
C13 H13B 0.9900 . ? 
C14 H14A 0.9800 . ? 
C14 H14B 0.9800 . ? 
C14 H14C 0.9800 . ? 
 
loop_ 
 _geom_angle_atom_site_label_1 
 _geom_angle_atom_site_label_2 
 _geom_angle_atom_site_label_3 
 _geom_angle 
 _geom_angle_site_symmetry_1 
 _geom_angle_site_symmetry_3 
 _geom_angle_publ_flag 
C2 O1 C1 115.82(11) . . ? 
C4 O2 C6 115.37(11) . . ? 
C2 O3 C7 114.02(10) . . ? 
C4 O4 C8 113.08(10) . . ? 
C9 O5 H5 111.2(12) . . ? 
C13 O6 C10 114.43(11) . . ? 
C13 O7 C14 113.31(13) . . ? 
O1 C1 H1A 109.5 . . ? 
O1 C1 H1B 109.5 . . ? 
H1A C1 H1B 109.5 . . ? 
O1 C1 H1C 109.5 . . ? 
H1A C1 H1C 109.5 . . ? 
H1B C1 H1C 109.5 . . ? 
O1 C2 O3 109.81(11) . . ? 
O1 C2 C3 113.53(12) . . ? 
O3 C2 C3 106.07(11) . . ? 
O1 C2 C4 105.33(11) . . ? 
O3 C2 C4 108.72(11) . . ? 
C3 C2 C4 113.34(12) . . ? 
C2 C3 H3A 109.5 . . ? 
C2 C3 H3B 109.5 . . ? 
H3A C3 H3B 109.5 . . ? 
C2 C3 H3C 109.5 . . ? 
H3A C3 H3C 109.5 . . ? 
H3B C3 H3C 109.5 . . ? 
O2 C4 O4 110.60(11) . . ? 
O2 C4 C5 113.42(12) . . ? 
O4 C4 C5 105.95(11) . . ? 
O2 C4 C2 104.38(11) . . ? 
O4 C4 C2 109.40(12) . . ? 
C5 C4 C2 113.15(12) . . ? 
C4 C5 H5B 109.5 . . ? 
C4 C5 H5C 109.5 . . ? 
H5B C5 H5C 109.5 . . ? 
C4 C5 H5D 109.5 . . ? 
H5B C5 H5D 109.5 . . ? 
H5C C5 H5D 109.5 . . ? 
O2 C6 H6A 109.5 . . ? 
O2 C6 H6B 109.5 . . ? 
H6A C6 H6B 109.5 . . ? 
O2 C6 H6C 109.5 . . ? 
H6A C6 H6C 109.5 . . ? 
H6B C6 H6C 109.5 . . ? 
O3 C7 C9 104.94(11) . . ? 
O3 C7 C8 108.36(11) . . ? 
C9 C7 C8 113.28(11) . . ? 
O3 C7 H7 110.0 . . ? 
C9 C7 H7 110.0 . . ? 
C8 C7 H7 110.0 . . ? 
O4 C8 C10 106.78(10) . . ? 
O4 C8 C7 110.27(11) . . ? 
C10 C8 C7 114.20(12) . . ? 
O4 C8 H8 108.5 . . ? 
C10 C8 H8 108.5 . . ? 
C7 C8 H8 108.5 . . ? 
O5 C9 C7 111.78(12) . . ? 
O5 C9 H9A 109.3 . . ? 
C7 C9 H9A 109.3 . . ? 
O5 C9 H9B 109.3 . . ? 
C7 C9 H9B 109.3 . . ? 
H9A C9 H9B 107.9 . . ? 
O6 C10 C11 112.52(12) . . ? 
O6 C10 C8 107.52(11) . . ? 
C11 C10 C8 109.83(12) . . ? 
O6 C10 H10 109.0 . . ? 
C11 C10 H10 109.0 . . ? 
C8 C10 H10 109.0 . . ? 
C12 C11 C10 177.22(16) . . ? 
C11 C12 H12 180.0 . . ? 
O7 C13 O6 113.22(13) . . ? 
O7 C13 H13A 108.9 . . ? 
O6 C13 H13A 108.9 . . ? 
O7 C13 H13B 108.9 . . ? 
O6 C13 H13B 108.9 . . ? 
H13A C13 H13B 107.7 . . ? 
O7 C14 H14A 109.5 . . ? 
O7 C14 H14B 109.5 . . ? 
H14A C14 H14B 109.5 . . ? 
O7 C14 H14C 109.5 . . ? 
H14A C14 H14C 109.5 . . ? 
H14B C14 H14C 109.5 . . ? 
 
loop_ 
 _geom_torsion_atom_site_label_1 
 _geom_torsion_atom_site_label_2 
 _geom_torsion_atom_site_label_3 
 _geom_torsion_atom_site_label_4 
 _geom_torsion 
 _geom_torsion_site_symmetry_1 
 _geom_torsion_site_symmetry_2 
 _geom_torsion_site_symmetry_3 
 _geom_torsion_site_symmetry_4 
 _geom_torsion_publ_flag 
C1 O1 C2 O3 -68.37(15) . . . . ? 
C1 O1 C2 C3 50.16(16) . . . . ? 
C1 O1 C2 C4 174.73(11) . . . . ? 
C7 O3 C2 O1 -57.35(15) . . . . ? 
C7 O3 C2 C3 179.61(11) . . . . ? 
C7 O3 C2 C4 57.40(15) . . . . ? 
C6 O2 C4 O4 -60.45(15) . . . . ? 
C6 O2 C4 C5 58.41(16) . . . . ? 
C6 O2 C4 C2 -178.00(12) . . . . ? 
C8 O4 C4 O2 -56.53(15) . . . . ? 
C8 O4 C4 C5 -179.83(11) . . . . ? 
C8 O4 C4 C2 57.89(15) . . . . ? 
O1 C2 C4 O2 -179.05(10) . . . . ? 
O3 C2 C4 O2 63.31(14) . . . . ? 
C3 C2 C4 O2 -54.36(14) . . . . ? 
O1 C2 C4 O4 62.57(13) . . . . ? 
O3 C2 C4 O4 -55.06(15) . . . . ? 
C3 C2 C4 O4 -172.74(11) . . . . ? 
O1 C2 C4 C5 -55.29(15) . . . . ? 
O3 C2 C4 C5 -172.92(12) . . . . ? 
C3 C2 C4 C5 69.40(16) . . . . ? 
C2 O3 C7 C9 -178.88(11) . . . . ? 
C2 O3 C7 C8 -57.58(15) . . . . ? 
C4 O4 C8 C10 176.64(11) . . . . ? 
C4 O4 C8 C7 -58.76(15) . . . . ? 
O3 C7 C8 O4 55.58(14) . . . . ? 
C9 C7 C8 O4 171.59(11) . . . . ? 
O3 C7 C8 C10 175.80(11) . . . . ? 
C9 C7 C8 C10 -68.18(16) . . . . ? 
O3 C7 C9 O5 -166.50(11) . . . . ? 
C8 C7 C9 O5 75.48(16) . . . . ? 
C13 O6 C10 C11 -59.93(15) . . . . ? 
C13 O6 C10 C8 179.00(11) . . . . ? 
O4 C8 C10 O6 61.89(14) . . . . ? 
C7 C8 C10 O6 -60.27(15) . . . . ? 
O4 C8 C10 C11 -60.85(15) . . . . ? 
C7 C8 C10 C11 176.99(11) . . . . ? 
O6 C10 C11 C12 172(3) . . . . ? 
C8 C10 C11 C12 -69(3) . . . . ? 
C14 O7 C13 O6 -73.28(18) . . . . ? 
C10 O6 C13 O7 -66.92(17) . . . . ? 
 
_diffrn_measured_fraction_theta_max    0.993 
_diffrn_reflns_theta_full              27.48 
_diffrn_measured_fraction_theta_full   0.993 
_refine_diff_density_max    0.315 
_refine_diff_density_min   -0.218 
_refine_diff_density_rms    0.039 
